NAME          C5_10 (cyclic polytope)
*   Maximum: 66429 

ROWS
 L  R1
 L  R2
 L  R3
 L  R4
 L  R5
 L  R6
 L  R7
 L  R8
 L  R9
 L  R10
 L  R11
 L  R12
 L  R13
 L  R14
 L  R15
 L  R16
 L  R17
 L  R18
 L  R19
 L  R20
 L  R21
 L  R22
 L  R23
 L  R24
 L  R25
 L  R26
 L  R27
 L  R28
 L  R29
 L  R30
 L  R31
 L  R32
 L  R33
 L  R34
 L  R35
 L  R36
 L  R37
 L  R38
 L  R39
 L  R40
 L  R41
 L  R42
 N  COST
COLUMNS
    X1        R1        -3024.0
    X1        R2        -2160.0
    X1        R3        -1680.0
    X1        R4        -1440.0
    X1        R5        -1120.0
    X1        R6        -864.0
    X1        R7        -840.0
    X1        R8        -672.0
    X1        R9        -504.0
    X1        R10       -432.0
    X1        R11       -360.0
    X1        R12       -336.0
    X1        R13       -252.0
    X1        R14       -180.0
    X1        R15       -144.0
    X1        R16       -120.0
    X1        R17       -112.0
    X1        R18       -84.0
    X1        R19       -60.0
    X1        R20       -40.0
    X1        R21       -24.0
    X1        R22       54.0
    X1        R23       108.0
    X1        R24       180.0
    X1        R25       270.0
    X1        R26       378.0
    X1        R27       504.0
    X1        R28       474.0
    X1        R29       742.0
    X1        R30       1068.0
    X1        R31       1452.0
    X1        R32       1506.0
    X1        R33       1894.0
    X1        R34       2124.0
    X1        R35       2844.0
    X1        R36       3438.0
    X1        R37       3666.0
    X1        R38       4554.0
    X1        R39       5820.0
    X1        R40       6582.0
    X1        R41       8356.0
    X1        R42       11274.0
    X2        R1        1650.0
    X2        R2        1302.0
    X2        R3        1066.0
    X2        R4        988.0
    X2        R5        804.0
    X2        R6        708.0
    X2        R7        638.0
    X2        R8        572.0
    X2        R9        450.0
    X2        R10       462.0
    X2        R11       342.0
    X2        R12       370.0
    X2        R13       288.0
    X2        R14       216.0
    X2        R15       250.0
    X2        R16       154.0
    X2        R17       198.0
    X2        R18       152.0
    X2        R19       112.0
    X2        R20       78.0
    X2        R21       50.0
    X2        R22       -105.0
    X2        R23       -183.0
    X2        R24       -281.0
    X2        R25       -399.0
    X2        R26       -537.0
    X2        R27       -695.0
    X2        R28       -365.0
    X2        R29       -519.0
    X2        R30       -697.0
    X2        R31       -899.0
    X2        R32       -793.0
    X2        R33       -1125.0
    X2        R34       -1035.0
    X2        R35       -1305.0
    X2        R36       -1413.0
    X2        R37       -1603.0
    X2        R38       -1755.0
    X2        R39       -2129.0
    X2        R40       -2249.0
    X2        R41       -2703.0
    X2        R42       -3325.0
    X3        R1        -335.0
    X3        R2        -289.0
    X3        R3        -251.0
    X3        R4        -245.0
    X3        R5        -211.0
    X3        R6        -203.0
    X3        R7        -179.0
    X3        R8        -173.0
    X3        R9        -145.0
    X3        R10       -163.0
    X3        R11       -119.0
    X3        R12       -137.0
    X3        R13       -113.0
    X3        R14       -91.0
    X3        R15       -125.0
    X3        R16       -71.0
    X3        R17       -103.0
    X3        R18       -83.0
    X3        R19       -65.0
    X3        R20       -49.0
    X3        R21       -35.0
    X3        R22       65.0
    X3        R23       91.0
    X3        R24       119.0
    X3        R25       149.0
    X3        R26       181.0
    X3        R27       215.0
    X3        R28       125.0
    X3        R29       157.0
    X3        R30       191.0
    X3        R31       227.0
    X3        R32       197.0
    X3        R33       265.0
    X3        R34       235.0
    X3        R35       275.0
    X3        R36       281.0
    X3        R37       317.0
    X3        R38       325.0
    X3        R39       371.0
    X3        R40       377.0
    X3        R41       427.0
    X3        R42       485.0
    X4        R1        30.0
    X4        R2        28.0
    X4        R3        26.0
    X4        R4        26.0
    X4        R5        24.0
    X4        R6        24.0
    X4        R7        22.0
    X4        R8        22.0
    X4        R9        20.0
    X4        R10       22.0
    X4        R11       18.0
    X4        R12       20.0
    X4        R13       18.0
    X4        R14       16.0
    X4        R15       20.0
    X4        R16       14.0
    X4        R17       18.0
    X4        R18       16.0
    X4        R19       14.0
    X4        R20       12.0
    X4        R21       10.0
    X4        R22       -15.0
    X4        R23       -17.0
    X4        R24       -19.0
    X4        R25       -21.0
    X4        R26       -23.0
    X4        R27       -25.0
    X4        R28       -19.0
    X4        R29       -21.0
    X4        R30       -23.0
    X4        R31       -25.0
    X4        R32       -23.0
    X4        R33       -27.0
    X4        R34       -25.0
    X4        R35       -27.0
    X4        R36       -27.0
    X4        R37       -29.0
    X4        R38       -29.0
    X4        R39       -31.0
    X4        R40       -31.0
    X4        R41       -33.0
    X4        R42       -35.0
    X5        R1         -1.0
    X5        R2        -1.0
    X5        R3        -1.0
    X5        R4        -1.0
    X5        R5        -1.0
    X5        R6        -1.0
    X5        R7        -1.0
    X5        R8        -1.0
    X5        R9        -1.0
    X5        R10       -1.0
    X5        R11       -1.0
    X5        R12       -1.0
    X5        R13       -1.0
    X5        R14       -1.0
    X5        R15       -1.0
    X5        R16       -1.0
    X5        R17       -1.0
    X5        R18       -1.0
    X5        R19       -1.0
    X5        R20       -1.0
    X5        R21       -1.0
    X5        R22       1.0
    X5        R23       1.0
    X5        R24       1.0
    X5        R25       1.0
    X5        R26       1.0
    X5        R27       1.0
    X5        R28       1.0
    X5        R29       1.0
    X5        R30       1.0
    X5        R31       1.0
    X5        R32       1.0
    X5        R33       1.0
    X5        R34       1.0
    X5        R35       1.0
    X5        R36       1.0
    X5        R37       1.0
    X5        R38       1.0
    X5        R39       1.0
    X5        R40       1.0
    X5        R41       1.0
    X5        R42       1.0
    X1        COST      -1.0
    X2        COST      -1.0
    X3        COST      -1.0
    X4        COST      -1.0
    X5        COST      -1.0
RHS
    b         R28       216.0
    b         R29       360.0
    b         R30       540.0
    b         R31       756.0
    b         R32       1080.0
    b         R33       1008.0
    b         R34       1620.0
    b         R35       2268.0
    b         R36       3240.0
    b         R37       3024.0
    b         R38       4536.0
    b         R39       6048.0
    b         R40       7560.0
    b         R41       10080.0
    b         R42       15120.0
ENDATA