2001 4001 6001
1 1 1.0000000000000000
1 2001 1.0000000000000000
2 2 1.0000000000000000
2 2002 1.0000000000000000
3 3 1.0000000000000000
3 2003 1.0000000000000000
4 4 1.0000000000000000
4 2004 1.0000000000000000
5 5 1.0000000000000000
5 2005 1.0000000000000000
6 6 1.0000000000000000
6 2006 1.0000000000000000
7 7 1.0000000000000000
7 2007 1.0000000000000000
8 8 1.0000000000000000
8 2008 1.0000000000000000
9 9 1.0000000000000000
9 2009 1.0000000000000000
10 10 1.0000000000000000
10 2010 1.0000000000000000
11 11 1.0000000000000000
11 2011 1.0000000000000000
12 12 1.0000000000000000
12 2012 1.0000000000000000
13 13 1.0000000000000000
13 2013 1.0000000000000000
14 14 1.0000000000000000
14 2014 1.0000000000000000
15 15 1.0000000000000000
15 2015 1.0000000000000000
16 16 1.0000000000000000
16 2016 1.0000000000000000
17 17 1.0000000000000000
17 2017 1.0000000000000000
18 18 1.0000000000000000
18 2018 1.0000000000000000
19 19 1.0000000000000000
19 2019 1.0000000000000000
20 20 1.0000000000000000
20 2020 1.0000000000000000
21 21 1.0000000000000000
21 2021 1.0000000000000000
22 22 1.0000000000000000
22 2022 1.0000000000000000
23 23 1.0000000000000000
23 2023 1.0000000000000000
24 24 1.0000000000000000
24 2024 1.0000000000000000
25 25 1.0000000000000000
25 2025 1.0000000000000000
26 26 1.0000000000000000
26 2026 1.0000000000000000
27 27 1.0000000000000000
27 2027 1.0000000000000000
28 28 1.0000000000000000
28 2028 1.0000000000000000
29 29 1.0000000000000000
29 2029 1.0000000000000000
30 30 1.0000000000000000
30 2030 1.0000000000000000
31 31 1.0000000000000000
31 2031 1.0000000000000000
32 32 1.0000000000000000
32 2032 1.0000000000000000
33 33 1.0000000000000000
33 2033 1.0000000000000000
34 34 1.0000000000000000
34 2034 1.0000000000000000
35 35 1.0000000000000000
35 2035 1.0000000000000000
36 36 1.0000000000000000
36 2036 1.0000000000000000
37 37 1.0000000000000000
37 2037 1.0000000000000000
38 38 1.0000000000000000
38 2038 1.0000000000000000
39 39 1.0000000000000000
39 2039 1.0000000000000000
40 40 1.0000000000000000
40 2040 1.0000000000000000
41 41 1.0000000000000000
41 2041 1.0000000000000000
42 42 1.0000000000000000
42 2042 1.0000000000000000
43 43 1.0000000000000000
43 2043 1.0000000000000000
44 44 1.0000000000000000
44 2044 1.0000000000000000
45 45 1.0000000000000000
45 2045 1.0000000000000000
46 46 1.0000000000000000
46 2046 1.0000000000000000
47 47 1.0000000000000000
47 2047 1.0000000000000000
48 48 1.0000000000000000
48 2048 1.0000000000000000
49 49 1.0000000000000000
49 2049 1.0000000000000000
50 50 1.0000000000000000
50 2050 1.0000000000000000
51 51 1.0000000000000000
51 2051 1.0000000000000000
52 52 1.0000000000000000
52 2052 1.0000000000000000
53 53 1.0000000000000000
53 2053 1.0000000000000000
54 54 1.0000000000000000
54 2054 1.0000000000000000
55 55 1.0000000000000000
55 2055 1.0000000000000000
56 56 1.0000000000000000
56 2056 1.0000000000000000
57 57 1.0000000000000000
57 2057 1.0000000000000000
58 58 1.0000000000000000
58 2058 1.0000000000000000
59 59 1.0000000000000000
59 2059 1.0000000000000000
60 60 1.0000000000000000
60 2060 1.0000000000000000
61 61 1.0000000000000000
61 2061 1.0000000000000000
62 62 1.0000000000000000
62 2062 1.0000000000000000
63 63 1.0000000000000000
63 2063 1.0000000000000000
64 64 1.0000000000000000
64 2064 1.0000000000000000
65 65 1.0000000000000000
65 2065 1.0000000000000000
66 66 1.0000000000000000
66 2066 1.0000000000000000
67 67 1.0000000000000000
67 2067 1.0000000000000000
68 68 1.0000000000000000
68 2068 1.0000000000000000
69 69 1.0000000000000000
69 2069 1.0000000000000000
70 70 1.0000000000000000
70 2070 1.0000000000000000
71 71 1.0000000000000000
71 2071 1.0000000000000000
72 72 1.0000000000000000
72 2072 1.0000000000000000
73 73 1.0000000000000000
73 2073 1.0000000000000000
74 74 1.0000000000000000
74 2074 1.0000000000000000
75 75 1.0000000000000000
75 2075 1.0000000000000000
76 76 1.0000000000000000
76 2076 1.0000000000000000
77 77 1.0000000000000000
77 2077 1.0000000000000000
78 78 1.0000000000000000
78 2078 1.0000000000000000
79 79 1.0000000000000000
79 2079 1.0000000000000000
80 80 1.0000000000000000
80 2080 1.0000000000000000
81 81 1.0000000000000000
81 2081 1.0000000000000000
82 82 1.0000000000000000
82 2082 1.0000000000000000
83 83 1.0000000000000000
83 2083 1.0000000000000000
84 84 1.0000000000000000
84 2084 1.0000000000000000
85 85 1.0000000000000000
85 2085 1.0000000000000000
86 86 1.0000000000000000
86 2086 1.0000000000000000
87 87 1.0000000000000000
87 2087 1.0000000000000000
88 88 1.0000000000000000
88 2088 1.0000000000000000
89 89 1.0000000000000000
89 2089 1.0000000000000000
90 90 1.0000000000000000
90 2090 1.0000000000000000
91 91 1.0000000000000000
91 2091 1.0000000000000000
92 92 1.0000000000000000
92 2092 1.0000000000000000
93 93 1.0000000000000000
93 2093 1.0000000000000000
94 94 1.0000000000000000
94 2094 1.0000000000000000
95 95 1.0000000000000000
95 2095 1.0000000000000000
96 96 1.0000000000000000
96 2096 1.0000000000000000
97 97 1.0000000000000000
97 2097 1.0000000000000000
98 98 1.0000000000000000
98 2098 1.0000000000000000
99 99 1.0000000000000000
99 2099 1.0000000000000000
100 100 1.0000000000000000
100 2100 1.0000000000000000
101 101 1.0000000000000000
101 2101 1.0000000000000000
102 102 1.0000000000000000
102 2102 1.0000000000000000
103 103 1.0000000000000000
103 2103 1.0000000000000000
104 104 1.0000000000000000
104 2104 1.0000000000000000
105 105 1.0000000000000000
105 2105 1.0000000000000000
106 106 1.0000000000000000
106 2106 1.0000000000000000
107 107 1.0000000000000000
107 2107 1.0000000000000000
108 108 1.0000000000000000
108 2108 1.0000000000000000
109 109 1.0000000000000000
109 2109 1.0000000000000000
110 110 1.0000000000000000
110 2110 1.0000000000000000
111 111 1.0000000000000000
111 2111 1.0000000000000000
112 112 1.0000000000000000
112 2112 1.0000000000000000
113 113 1.0000000000000000
113 2113 1.0000000000000000
114 114 1.0000000000000000
114 2114 1.0000000000000000
115 115 1.0000000000000000
115 2115 1.0000000000000000
116 116 1.0000000000000000
116 2116 1.0000000000000000
117 117 1.0000000000000000
117 2117 1.0000000000000000
118 118 1.0000000000000000
118 2118 1.0000000000000000
119 119 1.0000000000000000
119 2119 1.0000000000000000
120 120 1.0000000000000000
120 2120 1.0000000000000000
121 121 1.0000000000000000
121 2121 1.0000000000000000
122 122 1.0000000000000000
122 2122 1.0000000000000000
123 123 1.0000000000000000
123 2123 1.0000000000000000
124 124 1.0000000000000000
124 2124 1.0000000000000000
125 125 1.0000000000000000
125 2125 1.0000000000000000
126 126 1.0000000000000000
126 2126 1.0000000000000000
127 127 1.0000000000000000
127 2127 1.0000000000000000
128 128 1.0000000000000000
128 2128 1.0000000000000000
129 129 1.0000000000000000
129 2129 1.0000000000000000
130 130 1.0000000000000000
130 2130 1.0000000000000000
131 131 1.0000000000000000
131 2131 1.0000000000000000
132 132 1.0000000000000000
132 2132 1.0000000000000000
133 133 1.0000000000000000
133 2133 1.0000000000000000
134 134 1.0000000000000000
134 2134 1.0000000000000000
135 135 1.0000000000000000
135 2135 1.0000000000000000
136 136 1.0000000000000000
136 2136 1.0000000000000000
137 137 1.0000000000000000
137 2137 1.0000000000000000
138 138 1.0000000000000000
138 2138 1.0000000000000000
139 139 1.0000000000000000
139 2139 1.0000000000000000
140 140 1.0000000000000000
140 2140 1.0000000000000000
141 141 1.0000000000000000
141 2141 1.0000000000000000
142 142 1.0000000000000000
142 2142 1.0000000000000000
143 143 1.0000000000000000
143 2143 1.0000000000000000
144 144 1.0000000000000000
144 2144 1.0000000000000000
145 145 1.0000000000000000
145 2145 1.0000000000000000
146 146 1.0000000000000000
146 2146 1.0000000000000000
147 147 1.0000000000000000
147 2147 1.0000000000000000
148 148 1.0000000000000000
148 2148 1.0000000000000000
149 149 1.0000000000000000
149 2149 1.0000000000000000
150 150 1.0000000000000000
150 2150 1.0000000000000000
151 151 1.0000000000000000
151 2151 1.0000000000000000
152 152 1.0000000000000000
152 2152 1.0000000000000000
153 153 1.0000000000000000
153 2153 1.0000000000000000
154 154 1.0000000000000000
154 2154 1.0000000000000000
155 155 1.0000000000000000
155 2155 1.0000000000000000
156 156 1.0000000000000000
156 2156 1.0000000000000000
157 157 1.0000000000000000
157 2157 1.0000000000000000
158 158 1.0000000000000000
158 2158 1.0000000000000000
159 159 1.0000000000000000
159 2159 1.0000000000000000
160 160 1.0000000000000000
160 2160 1.0000000000000000
161 161 1.0000000000000000
161 2161 1.0000000000000000
162 162 1.0000000000000000
162 2162 1.0000000000000000
163 163 1.0000000000000000
163 2163 1.0000000000000000
164 164 1.0000000000000000
164 2164 1.0000000000000000
165 165 1.0000000000000000
165 2165 1.0000000000000000
166 166 1.0000000000000000
166 2166 1.0000000000000000
167 167 1.0000000000000000
167 2167 1.0000000000000000
168 168 1.0000000000000000
168 2168 1.0000000000000000
169 169 1.0000000000000000
169 2169 1.0000000000000000
170 170 1.0000000000000000
170 2170 1.0000000000000000
171 171 1.0000000000000000
171 2171 1.0000000000000000
172 172 1.0000000000000000
172 2172 1.0000000000000000
173 173 1.0000000000000000
173 2173 1.0000000000000000
174 174 1.0000000000000000
174 2174 1.0000000000000000
175 175 1.0000000000000000
175 2175 1.0000000000000000
176 176 1.0000000000000000
176 2176 1.0000000000000000
177 177 1.0000000000000000
177 2177 1.0000000000000000
178 178 1.0000000000000000
178 2178 1.0000000000000000
179 179 1.0000000000000000
179 2179 1.0000000000000000
180 180 1.0000000000000000
180 2180 1.0000000000000000
181 181 1.0000000000000000
181 2181 1.0000000000000000
182 182 1.0000000000000000
182 2182 1.0000000000000000
183 183 1.0000000000000000
183 2183 1.0000000000000000
184 184 1.0000000000000000
184 2184 1.0000000000000000
185 185 1.0000000000000000
185 2185 1.0000000000000000
186 186 1.0000000000000000
186 2186 1.0000000000000000
187 187 1.0000000000000000
187 2187 1.0000000000000000
188 188 1.0000000000000000
188 2188 1.0000000000000000
189 189 1.0000000000000000
189 2189 1.0000000000000000
190 190 1.0000000000000000
190 2190 1.0000000000000000
191 191 1.0000000000000000
191 2191 1.0000000000000000
192 192 1.0000000000000000
192 2192 1.0000000000000000
193 193 1.0000000000000000
193 2193 1.0000000000000000
194 194 1.0000000000000000
194 2194 1.0000000000000000
195 195 1.0000000000000000
195 2195 1.0000000000000000
196 196 1.0000000000000000
196 2196 1.0000000000000000
197 197 1.0000000000000000
197 2197 1.0000000000000000
198 198 1.0000000000000000
198 2198 1.0000000000000000
199 199 1.0000000000000000
199 2199 1.0000000000000000
200 200 1.0000000000000000
200 2200 1.0000000000000000
201 201 1.0000000000000000
201 2201 1.0000000000000000
202 202 1.0000000000000000
202 2202 1.0000000000000000
203 203 1.0000000000000000
203 2203 1.0000000000000000
204 204 1.0000000000000000
204 2204 1.0000000000000000
205 205 1.0000000000000000
205 2205 1.0000000000000000
206 206 1.0000000000000000
206 2206 1.0000000000000000
207 207 1.0000000000000000
207 2207 1.0000000000000000
208 208 1.0000000000000000
208 2208 1.0000000000000000
209 209 1.0000000000000000
209 2209 1.0000000000000000
210 210 1.0000000000000000
210 2210 1.0000000000000000
211 211 1.0000000000000000
211 2211 1.0000000000000000
212 212 1.0000000000000000
212 2212 1.0000000000000000
213 213 1.0000000000000000
213 2213 1.0000000000000000
214 214 1.0000000000000000
214 2214 1.0000000000000000
215 215 1.0000000000000000
215 2215 1.0000000000000000
216 216 1.0000000000000000
216 2216 1.0000000000000000
217 217 1.0000000000000000
217 2217 1.0000000000000000
218 218 1.0000000000000000
218 2218 1.0000000000000000
219 219 1.0000000000000000
219 2219 1.0000000000000000
220 220 1.0000000000000000
220 2220 1.0000000000000000
221 221 1.0000000000000000
221 2221 1.0000000000000000
222 222 1.0000000000000000
222 2222 1.0000000000000000
223 223 1.0000000000000000
223 2223 1.0000000000000000
224 224 1.0000000000000000
224 2224 1.0000000000000000
225 225 1.0000000000000000
225 2225 1.0000000000000000
226 226 1.0000000000000000
226 2226 1.0000000000000000
227 227 1.0000000000000000
227 2227 1.0000000000000000
228 228 1.0000000000000000
228 2228 1.0000000000000000
229 229 1.0000000000000000
229 2229 1.0000000000000000
230 230 1.0000000000000000
230 2230 1.0000000000000000
231 231 1.0000000000000000
231 2231 1.0000000000000000
232 232 1.0000000000000000
232 2232 1.0000000000000000
233 233 1.0000000000000000
233 2233 1.0000000000000000
234 234 1.0000000000000000
234 2234 1.0000000000000000
235 235 1.0000000000000000
235 2235 1.0000000000000000
236 236 1.0000000000000000
236 2236 1.0000000000000000
237 237 1.0000000000000000
237 2237 1.0000000000000000
238 238 1.0000000000000000
238 2238 1.0000000000000000
239 239 1.0000000000000000
239 2239 1.0000000000000000
240 240 1.0000000000000000
240 2240 1.0000000000000000
241 241 1.0000000000000000
241 2241 1.0000000000000000
242 242 1.0000000000000000
242 2242 1.0000000000000000
243 243 1.0000000000000000
243 2243 1.0000000000000000
244 244 1.0000000000000000
244 2244 1.0000000000000000
245 245 1.0000000000000000
245 2245 1.0000000000000000
246 246 1.0000000000000000
246 2246 1.0000000000000000
247 247 1.0000000000000000
247 2247 1.0000000000000000
248 248 1.0000000000000000
248 2248 1.0000000000000000
249 249 1.0000000000000000
249 2249 1.0000000000000000
250 250 1.0000000000000000
250 2250 1.0000000000000000
251 251 1.0000000000000000
251 2251 1.0000000000000000
252 252 1.0000000000000000
252 2252 1.0000000000000000
253 253 1.0000000000000000
253 2253 1.0000000000000000
254 254 1.0000000000000000
254 2254 1.0000000000000000
255 255 1.0000000000000000
255 2255 1.0000000000000000
256 256 1.0000000000000000
256 2256 1.0000000000000000
257 257 1.0000000000000000
257 2257 1.0000000000000000
258 258 1.0000000000000000
258 2258 1.0000000000000000
259 259 1.0000000000000000
259 2259 1.0000000000000000
260 260 1.0000000000000000
260 2260 1.0000000000000000
261 261 1.0000000000000000
261 2261 1.0000000000000000
262 262 1.0000000000000000
262 2262 1.0000000000000000
263 263 1.0000000000000000
263 2263 1.0000000000000000
264 264 1.0000000000000000
264 2264 1.0000000000000000
265 265 1.0000000000000000
265 2265 1.0000000000000000
266 266 1.0000000000000000
266 2266 1.0000000000000000
267 267 1.0000000000000000
267 2267 1.0000000000000000
268 268 1.0000000000000000
268 2268 1.0000000000000000
269 269 1.0000000000000000
269 2269 1.0000000000000000
270 270 1.0000000000000000
270 2270 1.0000000000000000
271 271 1.0000000000000000
271 2271 1.0000000000000000
272 272 1.0000000000000000
272 2272 1.0000000000000000
273 273 1.0000000000000000
273 2273 1.0000000000000000
274 274 1.0000000000000000
274 2274 1.0000000000000000
275 275 1.0000000000000000
275 2275 1.0000000000000000
276 276 1.0000000000000000
276 2276 1.0000000000000000
277 277 1.0000000000000000
277 2277 1.0000000000000000
278 278 1.0000000000000000
278 2278 1.0000000000000000
279 279 1.0000000000000000
279 2279 1.0000000000000000
280 280 1.0000000000000000
280 2280 1.0000000000000000
281 281 1.0000000000000000
281 2281 1.0000000000000000
282 282 1.0000000000000000
282 2282 1.0000000000000000
283 283 1.0000000000000000
283 2283 1.0000000000000000
284 284 1.0000000000000000
284 2284 1.0000000000000000
285 285 1.0000000000000000
285 2285 1.0000000000000000
286 286 1.0000000000000000
286 2286 1.0000000000000000
287 287 1.0000000000000000
287 2287 1.0000000000000000
288 288 1.0000000000000000
288 2288 1.0000000000000000
289 289 1.0000000000000000
289 2289 1.0000000000000000
290 290 1.0000000000000000
290 2290 1.0000000000000000
291 291 1.0000000000000000
291 2291 1.0000000000000000
292 292 1.0000000000000000
292 2292 1.0000000000000000
293 293 1.0000000000000000
293 2293 1.0000000000000000
294 294 1.0000000000000000
294 2294 1.0000000000000000
295 295 1.0000000000000000
295 2295 1.0000000000000000
296 296 1.0000000000000000
296 2296 1.0000000000000000
297 297 1.0000000000000000
297 2297 1.0000000000000000
298 298 1.0000000000000000
298 2298 1.0000000000000000
299 299 1.0000000000000000
299 2299 1.0000000000000000
300 300 1.0000000000000000
300 2300 1.0000000000000000
301 301 1.0000000000000000
301 2301 1.0000000000000000
302 302 1.0000000000000000
302 2302 1.0000000000000000
303 303 1.0000000000000000
303 2303 1.0000000000000000
304 304 1.0000000000000000
304 2304 1.0000000000000000
305 305 1.0000000000000000
305 2305 1.0000000000000000
306 306 1.0000000000000000
306 2306 1.0000000000000000
307 307 1.0000000000000000
307 2307 1.0000000000000000
308 308 1.0000000000000000
308 2308 1.0000000000000000
309 309 1.0000000000000000
309 2309 1.0000000000000000
310 310 1.0000000000000000
310 2310 1.0000000000000000
311 311 1.0000000000000000
311 2311 1.0000000000000000
312 312 1.0000000000000000
312 2312 1.0000000000000000
313 313 1.0000000000000000
313 2313 1.0000000000000000
314 314 1.0000000000000000
314 2314 1.0000000000000000
315 315 1.0000000000000000
315 2315 1.0000000000000000
316 316 1.0000000000000000
316 2316 1.0000000000000000
317 317 1.0000000000000000
317 2317 1.0000000000000000
318 318 1.0000000000000000
318 2318 1.0000000000000000
319 319 1.0000000000000000
319 2319 1.0000000000000000
320 320 1.0000000000000000
320 2320 1.0000000000000000
321 321 1.0000000000000000
321 2321 1.0000000000000000
322 322 1.0000000000000000
322 2322 1.0000000000000000
323 323 1.0000000000000000
323 2323 1.0000000000000000
324 324 1.0000000000000000
324 2324 1.0000000000000000
325 325 1.0000000000000000
325 2325 1.0000000000000000
326 326 1.0000000000000000
326 2326 1.0000000000000000
327 327 1.0000000000000000
327 2327 1.0000000000000000
328 328 1.0000000000000000
328 2328 1.0000000000000000
329 329 1.0000000000000000
329 2329 1.0000000000000000
330 330 1.0000000000000000
330 2330 1.0000000000000000
331 331 1.0000000000000000
331 2331 1.0000000000000000
332 332 1.0000000000000000
332 2332 1.0000000000000000
333 333 1.0000000000000000
333 2333 1.0000000000000000
334 334 1.0000000000000000
334 2334 1.0000000000000000
335 335 1.0000000000000000
335 2335 1.0000000000000000
336 336 1.0000000000000000
336 2336 1.0000000000000000
337 337 1.0000000000000000
337 2337 1.0000000000000000
338 338 1.0000000000000000
338 2338 1.0000000000000000
339 339 1.0000000000000000
339 2339 1.0000000000000000
340 340 1.0000000000000000
340 2340 1.0000000000000000
341 341 1.0000000000000000
341 2341 1.0000000000000000
342 342 1.0000000000000000
342 2342 1.0000000000000000
343 343 1.0000000000000000
343 2343 1.0000000000000000
344 344 1.0000000000000000
344 2344 1.0000000000000000
345 345 1.0000000000000000
345 2345 1.0000000000000000
346 346 1.0000000000000000
346 2346 1.0000000000000000
347 347 1.0000000000000000
347 2347 1.0000000000000000
348 348 1.0000000000000000
348 2348 1.0000000000000000
349 349 1.0000000000000000
349 2349 1.0000000000000000
350 350 1.0000000000000000
350 2350 1.0000000000000000
351 351 1.0000000000000000
351 2351 1.0000000000000000
352 352 1.0000000000000000
352 2352 1.0000000000000000
353 353 1.0000000000000000
353 2353 1.0000000000000000
354 354 1.0000000000000000
354 2354 1.0000000000000000
355 355 1.0000000000000000
355 2355 1.0000000000000000
356 356 1.0000000000000000
356 2356 1.0000000000000000
357 357 1.0000000000000000
357 2357 1.0000000000000000
358 358 1.0000000000000000
358 2358 1.0000000000000000
359 359 1.0000000000000000
359 2359 1.0000000000000000
360 360 1.0000000000000000
360 2360 1.0000000000000000
361 361 1.0000000000000000
361 2361 1.0000000000000000
362 362 1.0000000000000000
362 2362 1.0000000000000000
363 363 1.0000000000000000
363 2363 1.0000000000000000
364 364 1.0000000000000000
364 2364 1.0000000000000000
365 365 1.0000000000000000
365 2365 1.0000000000000000
366 366 1.0000000000000000
366 2366 1.0000000000000000
367 367 1.0000000000000000
367 2367 1.0000000000000000
368 368 1.0000000000000000
368 2368 1.0000000000000000
369 369 1.0000000000000000
369 2369 1.0000000000000000
370 370 1.0000000000000000
370 2370 1.0000000000000000
371 371 1.0000000000000000
371 2371 1.0000000000000000
372 372 1.0000000000000000
372 2372 1.0000000000000000
373 373 1.0000000000000000
373 2373 1.0000000000000000
374 374 1.0000000000000000
374 2374 1.0000000000000000
375 375 1.0000000000000000
375 2375 1.0000000000000000
376 376 1.0000000000000000
376 2376 1.0000000000000000
377 377 1.0000000000000000
377 2377 1.0000000000000000
378 378 1.0000000000000000
378 2378 1.0000000000000000
379 379 1.0000000000000000
379 2379 1.0000000000000000
380 380 1.0000000000000000
380 2380 1.0000000000000000
381 381 1.0000000000000000
381 2381 1.0000000000000000
382 382 1.0000000000000000
382 2382 1.0000000000000000
383 383 1.0000000000000000
383 2383 1.0000000000000000
384 384 1.0000000000000000
384 2384 1.0000000000000000
385 385 1.0000000000000000
385 2385 1.0000000000000000
386 386 1.0000000000000000
386 2386 1.0000000000000000
387 387 1.0000000000000000
387 2387 1.0000000000000000
388 388 1.0000000000000000
388 2388 1.0000000000000000
389 389 1.0000000000000000
389 2389 1.0000000000000000
390 390 1.0000000000000000
390 2390 1.0000000000000000
391 391 1.0000000000000000
391 2391 1.0000000000000000
392 392 1.0000000000000000
392 2392 1.0000000000000000
393 393 1.0000000000000000
393 2393 1.0000000000000000
394 394 1.0000000000000000
394 2394 1.0000000000000000
395 395 1.0000000000000000
395 2395 1.0000000000000000
396 396 1.0000000000000000
396 2396 1.0000000000000000
397 397 1.0000000000000000
397 2397 1.0000000000000000
398 398 1.0000000000000000
398 2398 1.0000000000000000
399 399 1.0000000000000000
399 2399 1.0000000000000000
400 400 1.0000000000000000
400 2400 1.0000000000000000
401 401 1.0000000000000000
401 2401 1.0000000000000000
402 402 1.0000000000000000
402 2402 1.0000000000000000
403 403 1.0000000000000000
403 2403 1.0000000000000000
404 404 1.0000000000000000
404 2404 1.0000000000000000
405 405 1.0000000000000000
405 2405 1.0000000000000000
406 406 1.0000000000000000
406 2406 1.0000000000000000
407 407 1.0000000000000000
407 2407 1.0000000000000000
408 408 1.0000000000000000
408 2408 1.0000000000000000
409 409 1.0000000000000000
409 2409 1.0000000000000000
410 410 1.0000000000000000
410 2410 1.0000000000000000
411 411 1.0000000000000000
411 2411 1.0000000000000000
412 412 1.0000000000000000
412 2412 1.0000000000000000
413 413 1.0000000000000000
413 2413 1.0000000000000000
414 414 1.0000000000000000
414 2414 1.0000000000000000
415 415 1.0000000000000000
415 2415 1.0000000000000000
416 416 1.0000000000000000
416 2416 1.0000000000000000
417 417 1.0000000000000000
417 2417 1.0000000000000000
418 418 1.0000000000000000
418 2418 1.0000000000000000
419 419 1.0000000000000000
419 2419 1.0000000000000000
420 420 1.0000000000000000
420 2420 1.0000000000000000
421 421 1.0000000000000000
421 2421 1.0000000000000000
422 422 1.0000000000000000
422 2422 1.0000000000000000
423 423 1.0000000000000000
423 2423 1.0000000000000000
424 424 1.0000000000000000
424 2424 1.0000000000000000
425 425 1.0000000000000000
425 2425 1.0000000000000000
426 426 1.0000000000000000
426 2426 1.0000000000000000
427 427 1.0000000000000000
427 2427 1.0000000000000000
428 428 1.0000000000000000
428 2428 1.0000000000000000
429 429 1.0000000000000000
429 2429 1.0000000000000000
430 430 1.0000000000000000
430 2430 1.0000000000000000
431 431 1.0000000000000000
431 2431 1.0000000000000000
432 432 1.0000000000000000
432 2432 1.0000000000000000
433 433 1.0000000000000000
433 2433 1.0000000000000000
434 434 1.0000000000000000
434 2434 1.0000000000000000
435 435 1.0000000000000000
435 2435 1.0000000000000000
436 436 1.0000000000000000
436 2436 1.0000000000000000
437 437 1.0000000000000000
437 2437 1.0000000000000000
438 438 1.0000000000000000
438 2438 1.0000000000000000
439 439 1.0000000000000000
439 2439 1.0000000000000000
440 440 1.0000000000000000
440 2440 1.0000000000000000
441 441 1.0000000000000000
441 2441 1.0000000000000000
442 442 1.0000000000000000
442 2442 1.0000000000000000
443 443 1.0000000000000000
443 2443 1.0000000000000000
444 444 1.0000000000000000
444 2444 1.0000000000000000
445 445 1.0000000000000000
445 2445 1.0000000000000000
446 446 1.0000000000000000
446 2446 1.0000000000000000
447 447 1.0000000000000000
447 2447 1.0000000000000000
448 448 1.0000000000000000
448 2448 1.0000000000000000
449 449 1.0000000000000000
449 2449 1.0000000000000000
450 450 1.0000000000000000
450 2450 1.0000000000000000
451 451 1.0000000000000000
451 2451 1.0000000000000000
452 452 1.0000000000000000
452 2452 1.0000000000000000
453 453 1.0000000000000000
453 2453 1.0000000000000000
454 454 1.0000000000000000
454 2454 1.0000000000000000
455 455 1.0000000000000000
455 2455 1.0000000000000000
456 456 1.0000000000000000
456 2456 1.0000000000000000
457 457 1.0000000000000000
457 2457 1.0000000000000000
458 458 1.0000000000000000
458 2458 1.0000000000000000
459 459 1.0000000000000000
459 2459 1.0000000000000000
460 460 1.0000000000000000
460 2460 1.0000000000000000
461 461 1.0000000000000000
461 2461 1.0000000000000000
462 462 1.0000000000000000
462 2462 1.0000000000000000
463 463 1.0000000000000000
463 2463 1.0000000000000000
464 464 1.0000000000000000
464 2464 1.0000000000000000
465 465 1.0000000000000000
465 2465 1.0000000000000000
466 466 1.0000000000000000
466 2466 1.0000000000000000
467 467 1.0000000000000000
467 2467 1.0000000000000000
468 468 1.0000000000000000
468 2468 1.0000000000000000
469 469 1.0000000000000000
469 2469 1.0000000000000000
470 470 1.0000000000000000
470 2470 1.0000000000000000
471 471 1.0000000000000000
471 2471 1.0000000000000000
472 472 1.0000000000000000
472 2472 1.0000000000000000
473 473 1.0000000000000000
473 2473 1.0000000000000000
474 474 1.0000000000000000
474 2474 1.0000000000000000
475 475 1.0000000000000000
475 2475 1.0000000000000000
476 476 1.0000000000000000
476 2476 1.0000000000000000
477 477 1.0000000000000000
477 2477 1.0000000000000000
478 478 1.0000000000000000
478 2478 1.0000000000000000
479 479 1.0000000000000000
479 2479 1.0000000000000000
480 480 1.0000000000000000
480 2480 1.0000000000000000
481 481 1.0000000000000000
481 2481 1.0000000000000000
482 482 1.0000000000000000
482 2482 1.0000000000000000
483 483 1.0000000000000000
483 2483 1.0000000000000000
484 484 1.0000000000000000
484 2484 1.0000000000000000
485 485 1.0000000000000000
485 2485 1.0000000000000000
486 486 1.0000000000000000
486 2486 1.0000000000000000
487 487 1.0000000000000000
487 2487 1.0000000000000000
488 488 1.0000000000000000
488 2488 1.0000000000000000
489 489 1.0000000000000000
489 2489 1.0000000000000000
490 490 1.0000000000000000
490 2490 1.0000000000000000
491 491 1.0000000000000000
491 2491 1.0000000000000000
492 492 1.0000000000000000
492 2492 1.0000000000000000
493 493 1.0000000000000000
493 2493 1.0000000000000000
494 494 1.0000000000000000
494 2494 1.0000000000000000
495 495 1.0000000000000000
495 2495 1.0000000000000000
496 496 1.0000000000000000
496 2496 1.0000000000000000
497 497 1.0000000000000000
497 2497 1.0000000000000000
498 498 1.0000000000000000
498 2498 1.0000000000000000
499 499 1.0000000000000000
499 2499 1.0000000000000000
500 500 1.0000000000000000
500 2500 1.0000000000000000
501 501 1.0000000000000000
501 2501 1.0000000000000000
502 502 1.0000000000000000
502 2502 1.0000000000000000
503 503 1.0000000000000000
503 2503 1.0000000000000000
504 504 1.0000000000000000
504 2504 1.0000000000000000
505 505 1.0000000000000000
505 2505 1.0000000000000000
506 506 1.0000000000000000
506 2506 1.0000000000000000
507 507 1.0000000000000000
507 2507 1.0000000000000000
508 508 1.0000000000000000
508 2508 1.0000000000000000
509 509 1.0000000000000000
509 2509 1.0000000000000000
510 510 1.0000000000000000
510 2510 1.0000000000000000
511 511 1.0000000000000000
511 2511 1.0000000000000000
512 512 1.0000000000000000
512 2512 1.0000000000000000
513 513 1.0000000000000000
513 2513 1.0000000000000000
514 514 1.0000000000000000
514 2514 1.0000000000000000
515 515 1.0000000000000000
515 2515 1.0000000000000000
516 516 1.0000000000000000
516 2516 1.0000000000000000
517 517 1.0000000000000000
517 2517 1.0000000000000000
518 518 1.0000000000000000
518 2518 1.0000000000000000
519 519 1.0000000000000000
519 2519 1.0000000000000000
520 520 1.0000000000000000
520 2520 1.0000000000000000
521 521 1.0000000000000000
521 2521 1.0000000000000000
522 522 1.0000000000000000
522 2522 1.0000000000000000
523 523 1.0000000000000000
523 2523 1.0000000000000000
524 524 1.0000000000000000
524 2524 1.0000000000000000
525 525 1.0000000000000000
525 2525 1.0000000000000000
526 526 1.0000000000000000
526 2526 1.0000000000000000
527 527 1.0000000000000000
527 2527 1.0000000000000000
528 528 1.0000000000000000
528 2528 1.0000000000000000
529 529 1.0000000000000000
529 2529 1.0000000000000000
530 530 1.0000000000000000
530 2530 1.0000000000000000
531 531 1.0000000000000000
531 2531 1.0000000000000000
532 532 1.0000000000000000
532 2532 1.0000000000000000
533 533 1.0000000000000000
533 2533 1.0000000000000000
534 534 1.0000000000000000
534 2534 1.0000000000000000
535 535 1.0000000000000000
535 2535 1.0000000000000000
536 536 1.0000000000000000
536 2536 1.0000000000000000
537 537 1.0000000000000000
537 2537 1.0000000000000000
538 538 1.0000000000000000
538 2538 1.0000000000000000
539 539 1.0000000000000000
539 2539 1.0000000000000000
540 540 1.0000000000000000
540 2540 1.0000000000000000
541 541 1.0000000000000000
541 2541 1.0000000000000000
542 542 1.0000000000000000
542 2542 1.0000000000000000
543 543 1.0000000000000000
543 2543 1.0000000000000000
544 544 1.0000000000000000
544 2544 1.0000000000000000
545 545 1.0000000000000000
545 2545 1.0000000000000000
546 546 1.0000000000000000
546 2546 1.0000000000000000
547 547 1.0000000000000000
547 2547 1.0000000000000000
548 548 1.0000000000000000
548 2548 1.0000000000000000
549 549 1.0000000000000000
549 2549 1.0000000000000000
550 550 1.0000000000000000
550 2550 1.0000000000000000
551 551 1.0000000000000000
551 2551 1.0000000000000000
552 552 1.0000000000000000
552 2552 1.0000000000000000
553 553 1.0000000000000000
553 2553 1.0000000000000000
554 554 1.0000000000000000
554 2554 1.0000000000000000
555 555 1.0000000000000000
555 2555 1.0000000000000000
556 556 1.0000000000000000
556 2556 1.0000000000000000
557 557 1.0000000000000000
557 2557 1.0000000000000000
558 558 1.0000000000000000
558 2558 1.0000000000000000
559 559 1.0000000000000000
559 2559 1.0000000000000000
560 560 1.0000000000000000
560 2560 1.0000000000000000
561 561 1.0000000000000000
561 2561 1.0000000000000000
562 562 1.0000000000000000
562 2562 1.0000000000000000
563 563 1.0000000000000000
563 2563 1.0000000000000000
564 564 1.0000000000000000
564 2564 1.0000000000000000
565 565 1.0000000000000000
565 2565 1.0000000000000000
566 566 1.0000000000000000
566 2566 1.0000000000000000
567 567 1.0000000000000000
567 2567 1.0000000000000000
568 568 1.0000000000000000
568 2568 1.0000000000000000
569 569 1.0000000000000000
569 2569 1.0000000000000000
570 570 1.0000000000000000
570 2570 1.0000000000000000
571 571 1.0000000000000000
571 2571 1.0000000000000000
572 572 1.0000000000000000
572 2572 1.0000000000000000
573 573 1.0000000000000000
573 2573 1.0000000000000000
574 574 1.0000000000000000
574 2574 1.0000000000000000
575 575 1.0000000000000000
575 2575 1.0000000000000000
576 576 1.0000000000000000
576 2576 1.0000000000000000
577 577 1.0000000000000000
577 2577 1.0000000000000000
578 578 1.0000000000000000
578 2578 1.0000000000000000
579 579 1.0000000000000000
579 2579 1.0000000000000000
580 580 1.0000000000000000
580 2580 1.0000000000000000
581 581 1.0000000000000000
581 2581 1.0000000000000000
582 582 1.0000000000000000
582 2582 1.0000000000000000
583 583 1.0000000000000000
583 2583 1.0000000000000000
584 584 1.0000000000000000
584 2584 1.0000000000000000
585 585 1.0000000000000000
585 2585 1.0000000000000000
586 586 1.0000000000000000
586 2586 1.0000000000000000
587 587 1.0000000000000000
587 2587 1.0000000000000000
588 588 1.0000000000000000
588 2588 1.0000000000000000
589 589 1.0000000000000000
589 2589 1.0000000000000000
590 590 1.0000000000000000
590 2590 1.0000000000000000
591 591 1.0000000000000000
591 2591 1.0000000000000000
592 592 1.0000000000000000
592 2592 1.0000000000000000
593 593 1.0000000000000000
593 2593 1.0000000000000000
594 594 1.0000000000000000
594 2594 1.0000000000000000
595 595 1.0000000000000000
595 2595 1.0000000000000000
596 596 1.0000000000000000
596 2596 1.0000000000000000
597 597 1.0000000000000000
597 2597 1.0000000000000000
598 598 1.0000000000000000
598 2598 1.0000000000000000
599 599 1.0000000000000000
599 2599 1.0000000000000000
600 600 1.0000000000000000
600 2600 1.0000000000000000
601 601 1.0000000000000000
601 2601 1.0000000000000000
602 602 1.0000000000000000
602 2602 1.0000000000000000
603 603 1.0000000000000000
603 2603 1.0000000000000000
604 604 1.0000000000000000
604 2604 1.0000000000000000
605 605 1.0000000000000000
605 2605 1.0000000000000000
606 606 1.0000000000000000
606 2606 1.0000000000000000
607 607 1.0000000000000000
607 2607 1.0000000000000000
608 608 1.0000000000000000
608 2608 1.0000000000000000
609 609 1.0000000000000000
609 2609 1.0000000000000000
610 610 1.0000000000000000
610 2610 1.0000000000000000
611 611 1.0000000000000000
611 2611 1.0000000000000000
612 612 1.0000000000000000
612 2612 1.0000000000000000
613 613 1.0000000000000000
613 2613 1.0000000000000000
614 614 1.0000000000000000
614 2614 1.0000000000000000
615 615 1.0000000000000000
615 2615 1.0000000000000000
616 616 1.0000000000000000
616 2616 1.0000000000000000
617 617 1.0000000000000000
617 2617 1.0000000000000000
618 618 1.0000000000000000
618 2618 1.0000000000000000
619 619 1.0000000000000000
619 2619 1.0000000000000000
620 620 1.0000000000000000
620 2620 1.0000000000000000
621 621 1.0000000000000000
621 2621 1.0000000000000000
622 622 1.0000000000000000
622 2622 1.0000000000000000
623 623 1.0000000000000000
623 2623 1.0000000000000000
624 624 1.0000000000000000
624 2624 1.0000000000000000
625 625 1.0000000000000000
625 2625 1.0000000000000000
626 626 1.0000000000000000
626 2626 1.0000000000000000
627 627 1.0000000000000000
627 2627 1.0000000000000000
628 628 1.0000000000000000
628 2628 1.0000000000000000
629 629 1.0000000000000000
629 2629 1.0000000000000000
630 630 1.0000000000000000
630 2630 1.0000000000000000
631 631 1.0000000000000000
631 2631 1.0000000000000000
632 632 1.0000000000000000
632 2632 1.0000000000000000
633 633 1.0000000000000000
633 2633 1.0000000000000000
634 634 1.0000000000000000
634 2634 1.0000000000000000
635 635 1.0000000000000000
635 2635 1.0000000000000000
636 636 1.0000000000000000
636 2636 1.0000000000000000
637 637 1.0000000000000000
637 2637 1.0000000000000000
638 638 1.0000000000000000
638 2638 1.0000000000000000
639 639 1.0000000000000000
639 2639 1.0000000000000000
640 640 1.0000000000000000
640 2640 1.0000000000000000
641 641 1.0000000000000000
641 2641 1.0000000000000000
642 642 1.0000000000000000
642 2642 1.0000000000000000
643 643 1.0000000000000000
643 2643 1.0000000000000000
644 644 1.0000000000000000
644 2644 1.0000000000000000
645 645 1.0000000000000000
645 2645 1.0000000000000000
646 646 1.0000000000000000
646 2646 1.0000000000000000
647 647 1.0000000000000000
647 2647 1.0000000000000000
648 648 1.0000000000000000
648 2648 1.0000000000000000
649 649 1.0000000000000000
649 2649 1.0000000000000000
650 650 1.0000000000000000
650 2650 1.0000000000000000
651 651 1.0000000000000000
651 2651 1.0000000000000000
652 652 1.0000000000000000
652 2652 1.0000000000000000
653 653 1.0000000000000000
653 2653 1.0000000000000000
654 654 1.0000000000000000
654 2654 1.0000000000000000
655 655 1.0000000000000000
655 2655 1.0000000000000000
656 656 1.0000000000000000
656 2656 1.0000000000000000
657 657 1.0000000000000000
657 2657 1.0000000000000000
658 658 1.0000000000000000
658 2658 1.0000000000000000
659 659 1.0000000000000000
659 2659 1.0000000000000000
660 660 1.0000000000000000
660 2660 1.0000000000000000
661 661 1.0000000000000000
661 2661 1.0000000000000000
662 662 1.0000000000000000
662 2662 1.0000000000000000
663 663 1.0000000000000000
663 2663 1.0000000000000000
664 664 1.0000000000000000
664 2664 1.0000000000000000
665 665 1.0000000000000000
665 2665 1.0000000000000000
666 666 1.0000000000000000
666 2666 1.0000000000000000
667 667 1.0000000000000000
667 2667 1.0000000000000000
668 668 1.0000000000000000
668 2668 1.0000000000000000
669 669 1.0000000000000000
669 2669 1.0000000000000000
670 670 1.0000000000000000
670 2670 1.0000000000000000
671 671 1.0000000000000000
671 2671 1.0000000000000000
672 672 1.0000000000000000
672 2672 1.0000000000000000
673 673 1.0000000000000000
673 2673 1.0000000000000000
674 674 1.0000000000000000
674 2674 1.0000000000000000
675 675 1.0000000000000000
675 2675 1.0000000000000000
676 676 1.0000000000000000
676 2676 1.0000000000000000
677 677 1.0000000000000000
677 2677 1.0000000000000000
678 678 1.0000000000000000
678 2678 1.0000000000000000
679 679 1.0000000000000000
679 2679 1.0000000000000000
680 680 1.0000000000000000
680 2680 1.0000000000000000
681 681 1.0000000000000000
681 2681 1.0000000000000000
682 682 1.0000000000000000
682 2682 1.0000000000000000
683 683 1.0000000000000000
683 2683 1.0000000000000000
684 684 1.0000000000000000
684 2684 1.0000000000000000
685 685 1.0000000000000000
685 2685 1.0000000000000000
686 686 1.0000000000000000
686 2686 1.0000000000000000
687 687 1.0000000000000000
687 2687 1.0000000000000000
688 688 1.0000000000000000
688 2688 1.0000000000000000
689 689 1.0000000000000000
689 2689 1.0000000000000000
690 690 1.0000000000000000
690 2690 1.0000000000000000
691 691 1.0000000000000000
691 2691 1.0000000000000000
692 692 1.0000000000000000
692 2692 1.0000000000000000
693 693 1.0000000000000000
693 2693 1.0000000000000000
694 694 1.0000000000000000
694 2694 1.0000000000000000
695 695 1.0000000000000000
695 2695 1.0000000000000000
696 696 1.0000000000000000
696 2696 1.0000000000000000
697 697 1.0000000000000000
697 2697 1.0000000000000000
698 698 1.0000000000000000
698 2698 1.0000000000000000
699 699 1.0000000000000000
699 2699 1.0000000000000000
700 700 1.0000000000000000
700 2700 1.0000000000000000
701 701 1.0000000000000000
701 2701 1.0000000000000000
702 702 1.0000000000000000
702 2702 1.0000000000000000
703 703 1.0000000000000000
703 2703 1.0000000000000000
704 704 1.0000000000000000
704 2704 1.0000000000000000
705 705 1.0000000000000000
705 2705 1.0000000000000000
706 706 1.0000000000000000
706 2706 1.0000000000000000
707 707 1.0000000000000000
707 2707 1.0000000000000000
708 708 1.0000000000000000
708 2708 1.0000000000000000
709 709 1.0000000000000000
709 2709 1.0000000000000000
710 710 1.0000000000000000
710 2710 1.0000000000000000
711 711 1.0000000000000000
711 2711 1.0000000000000000
712 712 1.0000000000000000
712 2712 1.0000000000000000
713 713 1.0000000000000000
713 2713 1.0000000000000000
714 714 1.0000000000000000
714 2714 1.0000000000000000
715 715 1.0000000000000000
715 2715 1.0000000000000000
716 716 1.0000000000000000
716 2716 1.0000000000000000
717 717 1.0000000000000000
717 2717 1.0000000000000000
718 718 1.0000000000000000
718 2718 1.0000000000000000
719 719 1.0000000000000000
719 2719 1.0000000000000000
720 720 1.0000000000000000
720 2720 1.0000000000000000
721 721 1.0000000000000000
721 2721 1.0000000000000000
722 722 1.0000000000000000
722 2722 1.0000000000000000
723 723 1.0000000000000000
723 2723 1.0000000000000000
724 724 1.0000000000000000
724 2724 1.0000000000000000
725 725 1.0000000000000000
725 2725 1.0000000000000000
726 726 1.0000000000000000
726 2726 1.0000000000000000
727 727 1.0000000000000000
727 2727 1.0000000000000000
728 728 1.0000000000000000
728 2728 1.0000000000000000
729 729 1.0000000000000000
729 2729 1.0000000000000000
730 730 1.0000000000000000
730 2730 1.0000000000000000
731 731 1.0000000000000000
731 2731 1.0000000000000000
732 732 1.0000000000000000
732 2732 1.0000000000000000
733 733 1.0000000000000000
733 2733 1.0000000000000000
734 734 1.0000000000000000
734 2734 1.0000000000000000
735 735 1.0000000000000000
735 2735 1.0000000000000000
736 736 1.0000000000000000
736 2736 1.0000000000000000
737 737 1.0000000000000000
737 2737 1.0000000000000000
738 738 1.0000000000000000
738 2738 1.0000000000000000
739 739 1.0000000000000000
739 2739 1.0000000000000000
740 740 1.0000000000000000
740 2740 1.0000000000000000
741 741 1.0000000000000000
741 2741 1.0000000000000000
742 742 1.0000000000000000
742 2742 1.0000000000000000
743 743 1.0000000000000000
743 2743 1.0000000000000000
744 744 1.0000000000000000
744 2744 1.0000000000000000
745 745 1.0000000000000000
745 2745 1.0000000000000000
746 746 1.0000000000000000
746 2746 1.0000000000000000
747 747 1.0000000000000000
747 2747 1.0000000000000000
748 748 1.0000000000000000
748 2748 1.0000000000000000
749 749 1.0000000000000000
749 2749 1.0000000000000000
750 750 1.0000000000000000
750 2750 1.0000000000000000
751 751 1.0000000000000000
751 2751 1.0000000000000000
752 752 1.0000000000000000
752 2752 1.0000000000000000
753 753 1.0000000000000000
753 2753 1.0000000000000000
754 754 1.0000000000000000
754 2754 1.0000000000000000
755 755 1.0000000000000000
755 2755 1.0000000000000000
756 756 1.0000000000000000
756 2756 1.0000000000000000
757 757 1.0000000000000000
757 2757 1.0000000000000000
758 758 1.0000000000000000
758 2758 1.0000000000000000
759 759 1.0000000000000000
759 2759 1.0000000000000000
760 760 1.0000000000000000
760 2760 1.0000000000000000
761 761 1.0000000000000000
761 2761 1.0000000000000000
762 762 1.0000000000000000
762 2762 1.0000000000000000
763 763 1.0000000000000000
763 2763 1.0000000000000000
764 764 1.0000000000000000
764 2764 1.0000000000000000
765 765 1.0000000000000000
765 2765 1.0000000000000000
766 766 1.0000000000000000
766 2766 1.0000000000000000
767 767 1.0000000000000000
767 2767 1.0000000000000000
768 768 1.0000000000000000
768 2768 1.0000000000000000
769 769 1.0000000000000000
769 2769 1.0000000000000000
770 770 1.0000000000000000
770 2770 1.0000000000000000
771 771 1.0000000000000000
771 2771 1.0000000000000000
772 772 1.0000000000000000
772 2772 1.0000000000000000
773 773 1.0000000000000000
773 2773 1.0000000000000000
774 774 1.0000000000000000
774 2774 1.0000000000000000
775 775 1.0000000000000000
775 2775 1.0000000000000000
776 776 1.0000000000000000
776 2776 1.0000000000000000
777 777 1.0000000000000000
777 2777 1.0000000000000000
778 778 1.0000000000000000
778 2778 1.0000000000000000
779 779 1.0000000000000000
779 2779 1.0000000000000000
780 780 1.0000000000000000
780 2780 1.0000000000000000
781 781 1.0000000000000000
781 2781 1.0000000000000000
782 782 1.0000000000000000
782 2782 1.0000000000000000
783 783 1.0000000000000000
783 2783 1.0000000000000000
784 784 1.0000000000000000
784 2784 1.0000000000000000
785 785 1.0000000000000000
785 2785 1.0000000000000000
786 786 1.0000000000000000
786 2786 1.0000000000000000
787 787 1.0000000000000000
787 2787 1.0000000000000000
788 788 1.0000000000000000
788 2788 1.0000000000000000
789 789 1.0000000000000000
789 2789 1.0000000000000000
790 790 1.0000000000000000
790 2790 1.0000000000000000
791 791 1.0000000000000000
791 2791 1.0000000000000000
792 792 1.0000000000000000
792 2792 1.0000000000000000
793 793 1.0000000000000000
793 2793 1.0000000000000000
794 794 1.0000000000000000
794 2794 1.0000000000000000
795 795 1.0000000000000000
795 2795 1.0000000000000000
796 796 1.0000000000000000
796 2796 1.0000000000000000
797 797 1.0000000000000000
797 2797 1.0000000000000000
798 798 1.0000000000000000
798 2798 1.0000000000000000
799 799 1.0000000000000000
799 2799 1.0000000000000000
800 800 1.0000000000000000
800 2800 1.0000000000000000
801 801 1.0000000000000000
801 2801 1.0000000000000000
802 802 1.0000000000000000
802 2802 1.0000000000000000
803 803 1.0000000000000000
803 2803 1.0000000000000000
804 804 1.0000000000000000
804 2804 1.0000000000000000
805 805 1.0000000000000000
805 2805 1.0000000000000000
806 806 1.0000000000000000
806 2806 1.0000000000000000
807 807 1.0000000000000000
807 2807 1.0000000000000000
808 808 1.0000000000000000
808 2808 1.0000000000000000
809 809 1.0000000000000000
809 2809 1.0000000000000000
810 810 1.0000000000000000
810 2810 1.0000000000000000
811 811 1.0000000000000000
811 2811 1.0000000000000000
812 812 1.0000000000000000
812 2812 1.0000000000000000
813 813 1.0000000000000000
813 2813 1.0000000000000000
814 814 1.0000000000000000
814 2814 1.0000000000000000
815 815 1.0000000000000000
815 2815 1.0000000000000000
816 816 1.0000000000000000
816 2816 1.0000000000000000
817 817 1.0000000000000000
817 2817 1.0000000000000000
818 818 1.0000000000000000
818 2818 1.0000000000000000
819 819 1.0000000000000000
819 2819 1.0000000000000000
820 820 1.0000000000000000
820 2820 1.0000000000000000
821 821 1.0000000000000000
821 2821 1.0000000000000000
822 822 1.0000000000000000
822 2822 1.0000000000000000
823 823 1.0000000000000000
823 2823 1.0000000000000000
824 824 1.0000000000000000
824 2824 1.0000000000000000
825 825 1.0000000000000000
825 2825 1.0000000000000000
826 826 1.0000000000000000
826 2826 1.0000000000000000
827 827 1.0000000000000000
827 2827 1.0000000000000000
828 828 1.0000000000000000
828 2828 1.0000000000000000
829 829 1.0000000000000000
829 2829 1.0000000000000000
830 830 1.0000000000000000
830 2830 1.0000000000000000
831 831 1.0000000000000000
831 2831 1.0000000000000000
832 832 1.0000000000000000
832 2832 1.0000000000000000
833 833 1.0000000000000000
833 2833 1.0000000000000000
834 834 1.0000000000000000
834 2834 1.0000000000000000
835 835 1.0000000000000000
835 2835 1.0000000000000000
836 836 1.0000000000000000
836 2836 1.0000000000000000
837 837 1.0000000000000000
837 2837 1.0000000000000000
838 838 1.0000000000000000
838 2838 1.0000000000000000
839 839 1.0000000000000000
839 2839 1.0000000000000000
840 840 1.0000000000000000
840 2840 1.0000000000000000
841 841 1.0000000000000000
841 2841 1.0000000000000000
842 842 1.0000000000000000
842 2842 1.0000000000000000
843 843 1.0000000000000000
843 2843 1.0000000000000000
844 844 1.0000000000000000
844 2844 1.0000000000000000
845 845 1.0000000000000000
845 2845 1.0000000000000000
846 846 1.0000000000000000
846 2846 1.0000000000000000
847 847 1.0000000000000000
847 2847 1.0000000000000000
848 848 1.0000000000000000
848 2848 1.0000000000000000
849 849 1.0000000000000000
849 2849 1.0000000000000000
850 850 1.0000000000000000
850 2850 1.0000000000000000
851 851 1.0000000000000000
851 2851 1.0000000000000000
852 852 1.0000000000000000
852 2852 1.0000000000000000
853 853 1.0000000000000000
853 2853 1.0000000000000000
854 854 1.0000000000000000
854 2854 1.0000000000000000
855 855 1.0000000000000000
855 2855 1.0000000000000000
856 856 1.0000000000000000
856 2856 1.0000000000000000
857 857 1.0000000000000000
857 2857 1.0000000000000000
858 858 1.0000000000000000
858 2858 1.0000000000000000
859 859 1.0000000000000000
859 2859 1.0000000000000000
860 860 1.0000000000000000
860 2860 1.0000000000000000
861 861 1.0000000000000000
861 2861 1.0000000000000000
862 862 1.0000000000000000
862 2862 1.0000000000000000
863 863 1.0000000000000000
863 2863 1.0000000000000000
864 864 1.0000000000000000
864 2864 1.0000000000000000
865 865 1.0000000000000000
865 2865 1.0000000000000000
866 866 1.0000000000000000
866 2866 1.0000000000000000
867 867 1.0000000000000000
867 2867 1.0000000000000000
868 868 1.0000000000000000
868 2868 1.0000000000000000
869 869 1.0000000000000000
869 2869 1.0000000000000000
870 870 1.0000000000000000
870 2870 1.0000000000000000
871 871 1.0000000000000000
871 2871 1.0000000000000000
872 872 1.0000000000000000
872 2872 1.0000000000000000
873 873 1.0000000000000000
873 2873 1.0000000000000000
874 874 1.0000000000000000
874 2874 1.0000000000000000
875 875 1.0000000000000000
875 2875 1.0000000000000000
876 876 1.0000000000000000
876 2876 1.0000000000000000
877 877 1.0000000000000000
877 2877 1.0000000000000000
878 878 1.0000000000000000
878 2878 1.0000000000000000
879 879 1.0000000000000000
879 2879 1.0000000000000000
880 880 1.0000000000000000
880 2880 1.0000000000000000
881 881 1.0000000000000000
881 2881 1.0000000000000000
882 882 1.0000000000000000
882 2882 1.0000000000000000
883 883 1.0000000000000000
883 2883 1.0000000000000000
884 884 1.0000000000000000
884 2884 1.0000000000000000
885 885 1.0000000000000000
885 2885 1.0000000000000000
886 886 1.0000000000000000
886 2886 1.0000000000000000
887 887 1.0000000000000000
887 2887 1.0000000000000000
888 888 1.0000000000000000
888 2888 1.0000000000000000
889 889 1.0000000000000000
889 2889 1.0000000000000000
890 890 1.0000000000000000
890 2890 1.0000000000000000
891 891 1.0000000000000000
891 2891 1.0000000000000000
892 892 1.0000000000000000
892 2892 1.0000000000000000
893 893 1.0000000000000000
893 2893 1.0000000000000000
894 894 1.0000000000000000
894 2894 1.0000000000000000
895 895 1.0000000000000000
895 2895 1.0000000000000000
896 896 1.0000000000000000
896 2896 1.0000000000000000
897 897 1.0000000000000000
897 2897 1.0000000000000000
898 898 1.0000000000000000
898 2898 1.0000000000000000
899 899 1.0000000000000000
899 2899 1.0000000000000000
900 900 1.0000000000000000
900 2900 1.0000000000000000
901 901 1.0000000000000000
901 2901 1.0000000000000000
902 902 1.0000000000000000
902 2902 1.0000000000000000
903 903 1.0000000000000000
903 2903 1.0000000000000000
904 904 1.0000000000000000
904 2904 1.0000000000000000
905 905 1.0000000000000000
905 2905 1.0000000000000000
906 906 1.0000000000000000
906 2906 1.0000000000000000
907 907 1.0000000000000000
907 2907 1.0000000000000000
908 908 1.0000000000000000
908 2908 1.0000000000000000
909 909 1.0000000000000000
909 2909 1.0000000000000000
910 910 1.0000000000000000
910 2910 1.0000000000000000
911 911 1.0000000000000000
911 2911 1.0000000000000000
912 912 1.0000000000000000
912 2912 1.0000000000000000
913 913 1.0000000000000000
913 2913 1.0000000000000000
914 914 1.0000000000000000
914 2914 1.0000000000000000
915 915 1.0000000000000000
915 2915 1.0000000000000000
916 916 1.0000000000000000
916 2916 1.0000000000000000
917 917 1.0000000000000000
917 2917 1.0000000000000000
918 918 1.0000000000000000
918 2918 1.0000000000000000
919 919 1.0000000000000000
919 2919 1.0000000000000000
920 920 1.0000000000000000
920 2920 1.0000000000000000
921 921 1.0000000000000000
921 2921 1.0000000000000000
922 922 1.0000000000000000
922 2922 1.0000000000000000
923 923 1.0000000000000000
923 2923 1.0000000000000000
924 924 1.0000000000000000
924 2924 1.0000000000000000
925 925 1.0000000000000000
925 2925 1.0000000000000000
926 926 1.0000000000000000
926 2926 1.0000000000000000
927 927 1.0000000000000000
927 2927 1.0000000000000000
928 928 1.0000000000000000
928 2928 1.0000000000000000
929 929 1.0000000000000000
929 2929 1.0000000000000000
930 930 1.0000000000000000
930 2930 1.0000000000000000
931 931 1.0000000000000000
931 2931 1.0000000000000000
932 932 1.0000000000000000
932 2932 1.0000000000000000
933 933 1.0000000000000000
933 2933 1.0000000000000000
934 934 1.0000000000000000
934 2934 1.0000000000000000
935 935 1.0000000000000000
935 2935 1.0000000000000000
936 936 1.0000000000000000
936 2936 1.0000000000000000
937 937 1.0000000000000000
937 2937 1.0000000000000000
938 938 1.0000000000000000
938 2938 1.0000000000000000
939 939 1.0000000000000000
939 2939 1.0000000000000000
940 940 1.0000000000000000
940 2940 1.0000000000000000
941 941 1.0000000000000000
941 2941 1.0000000000000000
942 942 1.0000000000000000
942 2942 1.0000000000000000
943 943 1.0000000000000000
943 2943 1.0000000000000000
944 944 1.0000000000000000
944 2944 1.0000000000000000
945 945 1.0000000000000000
945 2945 1.0000000000000000
946 946 1.0000000000000000
946 2946 1.0000000000000000
947 947 1.0000000000000000
947 2947 1.0000000000000000
948 948 1.0000000000000000
948 2948 1.0000000000000000
949 949 1.0000000000000000
949 2949 1.0000000000000000
950 950 1.0000000000000000
950 2950 1.0000000000000000
951 951 1.0000000000000000
951 2951 1.0000000000000000
952 952 1.0000000000000000
952 2952 1.0000000000000000
953 953 1.0000000000000000
953 2953 1.0000000000000000
954 954 1.0000000000000000
954 2954 1.0000000000000000
955 955 1.0000000000000000
955 2955 1.0000000000000000
956 956 1.0000000000000000
956 2956 1.0000000000000000
957 957 1.0000000000000000
957 2957 1.0000000000000000
958 958 1.0000000000000000
958 2958 1.0000000000000000
959 959 1.0000000000000000
959 2959 1.0000000000000000
960 960 1.0000000000000000
960 2960 1.0000000000000000
961 961 1.0000000000000000
961 2961 1.0000000000000000
962 962 1.0000000000000000
962 2962 1.0000000000000000
963 963 1.0000000000000000
963 2963 1.0000000000000000
964 964 1.0000000000000000
964 2964 1.0000000000000000
965 965 1.0000000000000000
965 2965 1.0000000000000000
966 966 1.0000000000000000
966 2966 1.0000000000000000
967 967 1.0000000000000000
967 2967 1.0000000000000000
968 968 1.0000000000000000
968 2968 1.0000000000000000
969 969 1.0000000000000000
969 2969 1.0000000000000000
970 970 1.0000000000000000
970 2970 1.0000000000000000
971 971 1.0000000000000000
971 2971 1.0000000000000000
972 972 1.0000000000000000
972 2972 1.0000000000000000
973 973 1.0000000000000000
973 2973 1.0000000000000000
974 974 1.0000000000000000
974 2974 1.0000000000000000
975 975 1.0000000000000000
975 2975 1.0000000000000000
976 976 1.0000000000000000
976 2976 1.0000000000000000
977 977 1.0000000000000000
977 2977 1.0000000000000000
978 978 1.0000000000000000
978 2978 1.0000000000000000
979 979 1.0000000000000000
979 2979 1.0000000000000000
980 980 1.0000000000000000
980 2980 1.0000000000000000
981 981 1.0000000000000000
981 2981 1.0000000000000000
982 982 1.0000000000000000
982 2982 1.0000000000000000
983 983 1.0000000000000000
983 2983 1.0000000000000000
984 984 1.0000000000000000
984 2984 1.0000000000000000
985 985 1.0000000000000000
985 2985 1.0000000000000000
986 986 1.0000000000000000
986 2986 1.0000000000000000
987 987 1.0000000000000000
987 2987 1.0000000000000000
988 988 1.0000000000000000
988 2988 1.0000000000000000
989 989 1.0000000000000000
989 2989 1.0000000000000000
990 990 1.0000000000000000
990 2990 1.0000000000000000
991 991 1.0000000000000000
991 2991 1.0000000000000000
992 992 1.0000000000000000
992 2992 1.0000000000000000
993 993 1.0000000000000000
993 2993 1.0000000000000000
994 994 1.0000000000000000
994 2994 1.0000000000000000
995 995 1.0000000000000000
995 2995 1.0000000000000000
996 996 1.0000000000000000
996 2996 1.0000000000000000
997 997 1.0000000000000000
997 2997 1.0000000000000000
998 998 1.0000000000000000
998 2998 1.0000000000000000
999 999 1.0000000000000000
999 2999 1.0000000000000000
1000 1000 1.0000000000000000
1000 3000 1.0000000000000000
1001 1001 1.0000000000000000
1001 3001 1.0000000000000000
1002 1002 1.0000000000000000
1002 3002 1.0000000000000000
1003 1003 1.0000000000000000
1003 3003 1.0000000000000000
1004 1004 1.0000000000000000
1004 3004 1.0000000000000000
1005 1005 1.0000000000000000
1005 3005 1.0000000000000000
1006 1006 1.0000000000000000
1006 3006 1.0000000000000000
1007 1007 1.0000000000000000
1007 3007 1.0000000000000000
1008 1008 1.0000000000000000
1008 3008 1.0000000000000000
1009 1009 1.0000000000000000
1009 3009 1.0000000000000000
1010 1010 1.0000000000000000
1010 3010 1.0000000000000000
1011 1011 1.0000000000000000
1011 3011 1.0000000000000000
1012 1012 1.0000000000000000
1012 3012 1.0000000000000000
1013 1013 1.0000000000000000
1013 3013 1.0000000000000000
1014 1014 1.0000000000000000
1014 3014 1.0000000000000000
1015 1015 1.0000000000000000
1015 3015 1.0000000000000000
1016 1016 1.0000000000000000
1016 3016 1.0000000000000000
1017 1017 1.0000000000000000
1017 3017 1.0000000000000000
1018 1018 1.0000000000000000
1018 3018 1.0000000000000000
1019 1019 1.0000000000000000
1019 3019 1.0000000000000000
1020 1020 1.0000000000000000
1020 3020 1.0000000000000000
1021 1021 1.0000000000000000
1021 3021 1.0000000000000000
1022 1022 1.0000000000000000
1022 3022 1.0000000000000000
1023 1023 1.0000000000000000
1023 3023 1.0000000000000000
1024 1024 1.0000000000000000
1024 3024 1.0000000000000000
1025 1025 1.0000000000000000
1025 3025 1.0000000000000000
1026 1026 1.0000000000000000
1026 3026 1.0000000000000000
1027 1027 1.0000000000000000
1027 3027 1.0000000000000000
1028 1028 1.0000000000000000
1028 3028 1.0000000000000000
1029 1029 1.0000000000000000
1029 3029 1.0000000000000000
1030 1030 1.0000000000000000
1030 3030 1.0000000000000000
1031 1031 1.0000000000000000
1031 3031 1.0000000000000000
1032 1032 1.0000000000000000
1032 3032 1.0000000000000000
1033 1033 1.0000000000000000
1033 3033 1.0000000000000000
1034 1034 1.0000000000000000
1034 3034 1.0000000000000000
1035 1035 1.0000000000000000
1035 3035 1.0000000000000000
1036 1036 1.0000000000000000
1036 3036 1.0000000000000000
1037 1037 1.0000000000000000
1037 3037 1.0000000000000000
1038 1038 1.0000000000000000
1038 3038 1.0000000000000000
1039 1039 1.0000000000000000
1039 3039 1.0000000000000000
1040 1040 1.0000000000000000
1040 3040 1.0000000000000000
1041 1041 1.0000000000000000
1041 3041 1.0000000000000000
1042 1042 1.0000000000000000
1042 3042 1.0000000000000000
1043 1043 1.0000000000000000
1043 3043 1.0000000000000000
1044 1044 1.0000000000000000
1044 3044 1.0000000000000000
1045 1045 1.0000000000000000
1045 3045 1.0000000000000000
1046 1046 1.0000000000000000
1046 3046 1.0000000000000000
1047 1047 1.0000000000000000
1047 3047 1.0000000000000000
1048 1048 1.0000000000000000
1048 3048 1.0000000000000000
1049 1049 1.0000000000000000
1049 3049 1.0000000000000000
1050 1050 1.0000000000000000
1050 3050 1.0000000000000000
1051 1051 1.0000000000000000
1051 3051 1.0000000000000000
1052 1052 1.0000000000000000
1052 3052 1.0000000000000000
1053 1053 1.0000000000000000
1053 3053 1.0000000000000000
1054 1054 1.0000000000000000
1054 3054 1.0000000000000000
1055 1055 1.0000000000000000
1055 3055 1.0000000000000000
1056 1056 1.0000000000000000
1056 3056 1.0000000000000000
1057 1057 1.0000000000000000
1057 3057 1.0000000000000000
1058 1058 1.0000000000000000
1058 3058 1.0000000000000000
1059 1059 1.0000000000000000
1059 3059 1.0000000000000000
1060 1060 1.0000000000000000
1060 3060 1.0000000000000000
1061 1061 1.0000000000000000
1061 3061 1.0000000000000000
1062 1062 1.0000000000000000
1062 3062 1.0000000000000000
1063 1063 1.0000000000000000
1063 3063 1.0000000000000000
1064 1064 1.0000000000000000
1064 3064 1.0000000000000000
1065 1065 1.0000000000000000
1065 3065 1.0000000000000000
1066 1066 1.0000000000000000
1066 3066 1.0000000000000000
1067 1067 1.0000000000000000
1067 3067 1.0000000000000000
1068 1068 1.0000000000000000
1068 3068 1.0000000000000000
1069 1069 1.0000000000000000
1069 3069 1.0000000000000000
1070 1070 1.0000000000000000
1070 3070 1.0000000000000000
1071 1071 1.0000000000000000
1071 3071 1.0000000000000000
1072 1072 1.0000000000000000
1072 3072 1.0000000000000000
1073 1073 1.0000000000000000
1073 3073 1.0000000000000000
1074 1074 1.0000000000000000
1074 3074 1.0000000000000000
1075 1075 1.0000000000000000
1075 3075 1.0000000000000000
1076 1076 1.0000000000000000
1076 3076 1.0000000000000000
1077 1077 1.0000000000000000
1077 3077 1.0000000000000000
1078 1078 1.0000000000000000
1078 3078 1.0000000000000000
1079 1079 1.0000000000000000
1079 3079 1.0000000000000000
1080 1080 1.0000000000000000
1080 3080 1.0000000000000000
1081 1081 1.0000000000000000
1081 3081 1.0000000000000000
1082 1082 1.0000000000000000
1082 3082 1.0000000000000000
1083 1083 1.0000000000000000
1083 3083 1.0000000000000000
1084 1084 1.0000000000000000
1084 3084 1.0000000000000000
1085 1085 1.0000000000000000
1085 3085 1.0000000000000000
1086 1086 1.0000000000000000
1086 3086 1.0000000000000000
1087 1087 1.0000000000000000
1087 3087 1.0000000000000000
1088 1088 1.0000000000000000
1088 3088 1.0000000000000000
1089 1089 1.0000000000000000
1089 3089 1.0000000000000000
1090 1090 1.0000000000000000
1090 3090 1.0000000000000000
1091 1091 1.0000000000000000
1091 3091 1.0000000000000000
1092 1092 1.0000000000000000
1092 3092 1.0000000000000000
1093 1093 1.0000000000000000
1093 3093 1.0000000000000000
1094 1094 1.0000000000000000
1094 3094 1.0000000000000000
1095 1095 1.0000000000000000
1095 3095 1.0000000000000000
1096 1096 1.0000000000000000
1096 3096 1.0000000000000000
1097 1097 1.0000000000000000
1097 3097 1.0000000000000000
1098 1098 1.0000000000000000
1098 3098 1.0000000000000000
1099 1099 1.0000000000000000
1099 3099 1.0000000000000000
1100 1100 1.0000000000000000
1100 3100 1.0000000000000000
1101 1101 1.0000000000000000
1101 3101 1.0000000000000000
1102 1102 1.0000000000000000
1102 3102 1.0000000000000000
1103 1103 1.0000000000000000
1103 3103 1.0000000000000000
1104 1104 1.0000000000000000
1104 3104 1.0000000000000000
1105 1105 1.0000000000000000
1105 3105 1.0000000000000000
1106 1106 1.0000000000000000
1106 3106 1.0000000000000000
1107 1107 1.0000000000000000
1107 3107 1.0000000000000000
1108 1108 1.0000000000000000
1108 3108 1.0000000000000000
1109 1109 1.0000000000000000
1109 3109 1.0000000000000000
1110 1110 1.0000000000000000
1110 3110 1.0000000000000000
1111 1111 1.0000000000000000
1111 3111 1.0000000000000000
1112 1112 1.0000000000000000
1112 3112 1.0000000000000000
1113 1113 1.0000000000000000
1113 3113 1.0000000000000000
1114 1114 1.0000000000000000
1114 3114 1.0000000000000000
1115 1115 1.0000000000000000
1115 3115 1.0000000000000000
1116 1116 1.0000000000000000
1116 3116 1.0000000000000000
1117 1117 1.0000000000000000
1117 3117 1.0000000000000000
1118 1118 1.0000000000000000
1118 3118 1.0000000000000000
1119 1119 1.0000000000000000
1119 3119 1.0000000000000000
1120 1120 1.0000000000000000
1120 3120 1.0000000000000000
1121 1121 1.0000000000000000
1121 3121 1.0000000000000000
1122 1122 1.0000000000000000
1122 3122 1.0000000000000000
1123 1123 1.0000000000000000
1123 3123 1.0000000000000000
1124 1124 1.0000000000000000
1124 3124 1.0000000000000000
1125 1125 1.0000000000000000
1125 3125 1.0000000000000000
1126 1126 1.0000000000000000
1126 3126 1.0000000000000000
1127 1127 1.0000000000000000
1127 3127 1.0000000000000000
1128 1128 1.0000000000000000
1128 3128 1.0000000000000000
1129 1129 1.0000000000000000
1129 3129 1.0000000000000000
1130 1130 1.0000000000000000
1130 3130 1.0000000000000000
1131 1131 1.0000000000000000
1131 3131 1.0000000000000000
1132 1132 1.0000000000000000
1132 3132 1.0000000000000000
1133 1133 1.0000000000000000
1133 3133 1.0000000000000000
1134 1134 1.0000000000000000
1134 3134 1.0000000000000000
1135 1135 1.0000000000000000
1135 3135 1.0000000000000000
1136 1136 1.0000000000000000
1136 3136 1.0000000000000000
1137 1137 1.0000000000000000
1137 3137 1.0000000000000000
1138 1138 1.0000000000000000
1138 3138 1.0000000000000000
1139 1139 1.0000000000000000
1139 3139 1.0000000000000000
1140 1140 1.0000000000000000
1140 3140 1.0000000000000000
1141 1141 1.0000000000000000
1141 3141 1.0000000000000000
1142 1142 1.0000000000000000
1142 3142 1.0000000000000000
1143 1143 1.0000000000000000
1143 3143 1.0000000000000000
1144 1144 1.0000000000000000
1144 3144 1.0000000000000000
1145 1145 1.0000000000000000
1145 3145 1.0000000000000000
1146 1146 1.0000000000000000
1146 3146 1.0000000000000000
1147 1147 1.0000000000000000
1147 3147 1.0000000000000000
1148 1148 1.0000000000000000
1148 3148 1.0000000000000000
1149 1149 1.0000000000000000
1149 3149 1.0000000000000000
1150 1150 1.0000000000000000
1150 3150 1.0000000000000000
1151 1151 1.0000000000000000
1151 3151 1.0000000000000000
1152 1152 1.0000000000000000
1152 3152 1.0000000000000000
1153 1153 1.0000000000000000
1153 3153 1.0000000000000000
1154 1154 1.0000000000000000
1154 3154 1.0000000000000000
1155 1155 1.0000000000000000
1155 3155 1.0000000000000000
1156 1156 1.0000000000000000
1156 3156 1.0000000000000000
1157 1157 1.0000000000000000
1157 3157 1.0000000000000000
1158 1158 1.0000000000000000
1158 3158 1.0000000000000000
1159 1159 1.0000000000000000
1159 3159 1.0000000000000000
1160 1160 1.0000000000000000
1160 3160 1.0000000000000000
1161 1161 1.0000000000000000
1161 3161 1.0000000000000000
1162 1162 1.0000000000000000
1162 3162 1.0000000000000000
1163 1163 1.0000000000000000
1163 3163 1.0000000000000000
1164 1164 1.0000000000000000
1164 3164 1.0000000000000000
1165 1165 1.0000000000000000
1165 3165 1.0000000000000000
1166 1166 1.0000000000000000
1166 3166 1.0000000000000000
1167 1167 1.0000000000000000
1167 3167 1.0000000000000000
1168 1168 1.0000000000000000
1168 3168 1.0000000000000000
1169 1169 1.0000000000000000
1169 3169 1.0000000000000000
1170 1170 1.0000000000000000
1170 3170 1.0000000000000000
1171 1171 1.0000000000000000
1171 3171 1.0000000000000000
1172 1172 1.0000000000000000
1172 3172 1.0000000000000000
1173 1173 1.0000000000000000
1173 3173 1.0000000000000000
1174 1174 1.0000000000000000
1174 3174 1.0000000000000000
1175 1175 1.0000000000000000
1175 3175 1.0000000000000000
1176 1176 1.0000000000000000
1176 3176 1.0000000000000000
1177 1177 1.0000000000000000
1177 3177 1.0000000000000000
1178 1178 1.0000000000000000
1178 3178 1.0000000000000000
1179 1179 1.0000000000000000
1179 3179 1.0000000000000000
1180 1180 1.0000000000000000
1180 3180 1.0000000000000000
1181 1181 1.0000000000000000
1181 3181 1.0000000000000000
1182 1182 1.0000000000000000
1182 3182 1.0000000000000000
1183 1183 1.0000000000000000
1183 3183 1.0000000000000000
1184 1184 1.0000000000000000
1184 3184 1.0000000000000000
1185 1185 1.0000000000000000
1185 3185 1.0000000000000000
1186 1186 1.0000000000000000
1186 3186 1.0000000000000000
1187 1187 1.0000000000000000
1187 3187 1.0000000000000000
1188 1188 1.0000000000000000
1188 3188 1.0000000000000000
1189 1189 1.0000000000000000
1189 3189 1.0000000000000000
1190 1190 1.0000000000000000
1190 3190 1.0000000000000000
1191 1191 1.0000000000000000
1191 3191 1.0000000000000000
1192 1192 1.0000000000000000
1192 3192 1.0000000000000000
1193 1193 1.0000000000000000
1193 3193 1.0000000000000000
1194 1194 1.0000000000000000
1194 3194 1.0000000000000000
1195 1195 1.0000000000000000
1195 3195 1.0000000000000000
1196 1196 1.0000000000000000
1196 3196 1.0000000000000000
1197 1197 1.0000000000000000
1197 3197 1.0000000000000000
1198 1198 1.0000000000000000
1198 3198 1.0000000000000000
1199 1199 1.0000000000000000
1199 3199 1.0000000000000000
1200 1200 1.0000000000000000
1200 3200 1.0000000000000000
1201 1201 1.0000000000000000
1201 3201 1.0000000000000000
1202 1202 1.0000000000000000
1202 3202 1.0000000000000000
1203 1203 1.0000000000000000
1203 3203 1.0000000000000000
1204 1204 1.0000000000000000
1204 3204 1.0000000000000000
1205 1205 1.0000000000000000
1205 3205 1.0000000000000000
1206 1206 1.0000000000000000
1206 3206 1.0000000000000000
1207 1207 1.0000000000000000
1207 3207 1.0000000000000000
1208 1208 1.0000000000000000
1208 3208 1.0000000000000000
1209 1209 1.0000000000000000
1209 3209 1.0000000000000000
1210 1210 1.0000000000000000
1210 3210 1.0000000000000000
1211 1211 1.0000000000000000
1211 3211 1.0000000000000000
1212 1212 1.0000000000000000
1212 3212 1.0000000000000000
1213 1213 1.0000000000000000
1213 3213 1.0000000000000000
1214 1214 1.0000000000000000
1214 3214 1.0000000000000000
1215 1215 1.0000000000000000
1215 3215 1.0000000000000000
1216 1216 1.0000000000000000
1216 3216 1.0000000000000000
1217 1217 1.0000000000000000
1217 3217 1.0000000000000000
1218 1218 1.0000000000000000
1218 3218 1.0000000000000000
1219 1219 1.0000000000000000
1219 3219 1.0000000000000000
1220 1220 1.0000000000000000
1220 3220 1.0000000000000000
1221 1221 1.0000000000000000
1221 3221 1.0000000000000000
1222 1222 1.0000000000000000
1222 3222 1.0000000000000000
1223 1223 1.0000000000000000
1223 3223 1.0000000000000000
1224 1224 1.0000000000000000
1224 3224 1.0000000000000000
1225 1225 1.0000000000000000
1225 3225 1.0000000000000000
1226 1226 1.0000000000000000
1226 3226 1.0000000000000000
1227 1227 1.0000000000000000
1227 3227 1.0000000000000000
1228 1228 1.0000000000000000
1228 3228 1.0000000000000000
1229 1229 1.0000000000000000
1229 3229 1.0000000000000000
1230 1230 1.0000000000000000
1230 3230 1.0000000000000000
1231 1231 1.0000000000000000
1231 3231 1.0000000000000000
1232 1232 1.0000000000000000
1232 3232 1.0000000000000000
1233 1233 1.0000000000000000
1233 3233 1.0000000000000000
1234 1234 1.0000000000000000
1234 3234 1.0000000000000000
1235 1235 1.0000000000000000
1235 3235 1.0000000000000000
1236 1236 1.0000000000000000
1236 3236 1.0000000000000000
1237 1237 1.0000000000000000
1237 3237 1.0000000000000000
1238 1238 1.0000000000000000
1238 3238 1.0000000000000000
1239 1239 1.0000000000000000
1239 3239 1.0000000000000000
1240 1240 1.0000000000000000
1240 3240 1.0000000000000000
1241 1241 1.0000000000000000
1241 3241 1.0000000000000000
1242 1242 1.0000000000000000
1242 3242 1.0000000000000000
1243 1243 1.0000000000000000
1243 3243 1.0000000000000000
1244 1244 1.0000000000000000
1244 3244 1.0000000000000000
1245 1245 1.0000000000000000
1245 3245 1.0000000000000000
1246 1246 1.0000000000000000
1246 3246 1.0000000000000000
1247 1247 1.0000000000000000
1247 3247 1.0000000000000000
1248 1248 1.0000000000000000
1248 3248 1.0000000000000000
1249 1249 1.0000000000000000
1249 3249 1.0000000000000000
1250 1250 1.0000000000000000
1250 3250 1.0000000000000000
1251 1251 1.0000000000000000
1251 3251 1.0000000000000000
1252 1252 1.0000000000000000
1252 3252 1.0000000000000000
1253 1253 1.0000000000000000
1253 3253 1.0000000000000000
1254 1254 1.0000000000000000
1254 3254 1.0000000000000000
1255 1255 1.0000000000000000
1255 3255 1.0000000000000000
1256 1256 1.0000000000000000
1256 3256 1.0000000000000000
1257 1257 1.0000000000000000
1257 3257 1.0000000000000000
1258 1258 1.0000000000000000
1258 3258 1.0000000000000000
1259 1259 1.0000000000000000
1259 3259 1.0000000000000000
1260 1260 1.0000000000000000
1260 3260 1.0000000000000000
1261 1261 1.0000000000000000
1261 3261 1.0000000000000000
1262 1262 1.0000000000000000
1262 3262 1.0000000000000000
1263 1263 1.0000000000000000
1263 3263 1.0000000000000000
1264 1264 1.0000000000000000
1264 3264 1.0000000000000000
1265 1265 1.0000000000000000
1265 3265 1.0000000000000000
1266 1266 1.0000000000000000
1266 3266 1.0000000000000000
1267 1267 1.0000000000000000
1267 3267 1.0000000000000000
1268 1268 1.0000000000000000
1268 3268 1.0000000000000000
1269 1269 1.0000000000000000
1269 3269 1.0000000000000000
1270 1270 1.0000000000000000
1270 3270 1.0000000000000000
1271 1271 1.0000000000000000
1271 3271 1.0000000000000000
1272 1272 1.0000000000000000
1272 3272 1.0000000000000000
1273 1273 1.0000000000000000
1273 3273 1.0000000000000000
1274 1274 1.0000000000000000
1274 3274 1.0000000000000000
1275 1275 1.0000000000000000
1275 3275 1.0000000000000000
1276 1276 1.0000000000000000
1276 3276 1.0000000000000000
1277 1277 1.0000000000000000
1277 3277 1.0000000000000000
1278 1278 1.0000000000000000
1278 3278 1.0000000000000000
1279 1279 1.0000000000000000
1279 3279 1.0000000000000000
1280 1280 1.0000000000000000
1280 3280 1.0000000000000000
1281 1281 1.0000000000000000
1281 3281 1.0000000000000000
1282 1282 1.0000000000000000
1282 3282 1.0000000000000000
1283 1283 1.0000000000000000
1283 3283 1.0000000000000000
1284 1284 1.0000000000000000
1284 3284 1.0000000000000000
1285 1285 1.0000000000000000
1285 3285 1.0000000000000000
1286 1286 1.0000000000000000
1286 3286 1.0000000000000000
1287 1287 1.0000000000000000
1287 3287 1.0000000000000000
1288 1288 1.0000000000000000
1288 3288 1.0000000000000000
1289 1289 1.0000000000000000
1289 3289 1.0000000000000000
1290 1290 1.0000000000000000
1290 3290 1.0000000000000000
1291 1291 1.0000000000000000
1291 3291 1.0000000000000000
1292 1292 1.0000000000000000
1292 3292 1.0000000000000000
1293 1293 1.0000000000000000
1293 3293 1.0000000000000000
1294 1294 1.0000000000000000
1294 3294 1.0000000000000000
1295 1295 1.0000000000000000
1295 3295 1.0000000000000000
1296 1296 1.0000000000000000
1296 3296 1.0000000000000000
1297 1297 1.0000000000000000
1297 3297 1.0000000000000000
1298 1298 1.0000000000000000
1298 3298 1.0000000000000000
1299 1299 1.0000000000000000
1299 3299 1.0000000000000000
1300 1300 1.0000000000000000
1300 3300 1.0000000000000000
1301 1301 1.0000000000000000
1301 3301 1.0000000000000000
1302 1302 1.0000000000000000
1302 3302 1.0000000000000000
1303 1303 1.0000000000000000
1303 3303 1.0000000000000000
1304 1304 1.0000000000000000
1304 3304 1.0000000000000000
1305 1305 1.0000000000000000
1305 3305 1.0000000000000000
1306 1306 1.0000000000000000
1306 3306 1.0000000000000000
1307 1307 1.0000000000000000
1307 3307 1.0000000000000000
1308 1308 1.0000000000000000
1308 3308 1.0000000000000000
1309 1309 1.0000000000000000
1309 3309 1.0000000000000000
1310 1310 1.0000000000000000
1310 3310 1.0000000000000000
1311 1311 1.0000000000000000
1311 3311 1.0000000000000000
1312 1312 1.0000000000000000
1312 3312 1.0000000000000000
1313 1313 1.0000000000000000
1313 3313 1.0000000000000000
1314 1314 1.0000000000000000
1314 3314 1.0000000000000000
1315 1315 1.0000000000000000
1315 3315 1.0000000000000000
1316 1316 1.0000000000000000
1316 3316 1.0000000000000000
1317 1317 1.0000000000000000
1317 3317 1.0000000000000000
1318 1318 1.0000000000000000
1318 3318 1.0000000000000000
1319 1319 1.0000000000000000
1319 3319 1.0000000000000000
1320 1320 1.0000000000000000
1320 3320 1.0000000000000000
1321 1321 1.0000000000000000
1321 3321 1.0000000000000000
1322 1322 1.0000000000000000
1322 3322 1.0000000000000000
1323 1323 1.0000000000000000
1323 3323 1.0000000000000000
1324 1324 1.0000000000000000
1324 3324 1.0000000000000000
1325 1325 1.0000000000000000
1325 3325 1.0000000000000000
1326 1326 1.0000000000000000
1326 3326 1.0000000000000000
1327 1327 1.0000000000000000
1327 3327 1.0000000000000000
1328 1328 1.0000000000000000
1328 3328 1.0000000000000000
1329 1329 1.0000000000000000
1329 3329 1.0000000000000000
1330 1330 1.0000000000000000
1330 3330 1.0000000000000000
1331 1331 1.0000000000000000
1331 3331 1.0000000000000000
1332 1332 1.0000000000000000
1332 3332 1.0000000000000000
1333 1333 1.0000000000000000
1333 3333 1.0000000000000000
1334 1334 1.0000000000000000
1334 3334 1.0000000000000000
1335 1335 1.0000000000000000
1335 3335 1.0000000000000000
1336 1336 1.0000000000000000
1336 3336 1.0000000000000000
1337 1337 1.0000000000000000
1337 3337 1.0000000000000000
1338 1338 1.0000000000000000
1338 3338 1.0000000000000000
1339 1339 1.0000000000000000
1339 3339 1.0000000000000000
1340 1340 1.0000000000000000
1340 3340 1.0000000000000000
1341 1341 1.0000000000000000
1341 3341 1.0000000000000000
1342 1342 1.0000000000000000
1342 3342 1.0000000000000000
1343 1343 1.0000000000000000
1343 3343 1.0000000000000000
1344 1344 1.0000000000000000
1344 3344 1.0000000000000000
1345 1345 1.0000000000000000
1345 3345 1.0000000000000000
1346 1346 1.0000000000000000
1346 3346 1.0000000000000000
1347 1347 1.0000000000000000
1347 3347 1.0000000000000000
1348 1348 1.0000000000000000
1348 3348 1.0000000000000000
1349 1349 1.0000000000000000
1349 3349 1.0000000000000000
1350 1350 1.0000000000000000
1350 3350 1.0000000000000000
1351 1351 1.0000000000000000
1351 3351 1.0000000000000000
1352 1352 1.0000000000000000
1352 3352 1.0000000000000000
1353 1353 1.0000000000000000
1353 3353 1.0000000000000000
1354 1354 1.0000000000000000
1354 3354 1.0000000000000000
1355 1355 1.0000000000000000
1355 3355 1.0000000000000000
1356 1356 1.0000000000000000
1356 3356 1.0000000000000000
1357 1357 1.0000000000000000
1357 3357 1.0000000000000000
1358 1358 1.0000000000000000
1358 3358 1.0000000000000000
1359 1359 1.0000000000000000
1359 3359 1.0000000000000000
1360 1360 1.0000000000000000
1360 3360 1.0000000000000000
1361 1361 1.0000000000000000
1361 3361 1.0000000000000000
1362 1362 1.0000000000000000
1362 3362 1.0000000000000000
1363 1363 1.0000000000000000
1363 3363 1.0000000000000000
1364 1364 1.0000000000000000
1364 3364 1.0000000000000000
1365 1365 1.0000000000000000
1365 3365 1.0000000000000000
1366 1366 1.0000000000000000
1366 3366 1.0000000000000000
1367 1367 1.0000000000000000
1367 3367 1.0000000000000000
1368 1368 1.0000000000000000
1368 3368 1.0000000000000000
1369 1369 1.0000000000000000
1369 3369 1.0000000000000000
1370 1370 1.0000000000000000
1370 3370 1.0000000000000000
1371 1371 1.0000000000000000
1371 3371 1.0000000000000000
1372 1372 1.0000000000000000
1372 3372 1.0000000000000000
1373 1373 1.0000000000000000
1373 3373 1.0000000000000000
1374 1374 1.0000000000000000
1374 3374 1.0000000000000000
1375 1375 1.0000000000000000
1375 3375 1.0000000000000000
1376 1376 1.0000000000000000
1376 3376 1.0000000000000000
1377 1377 1.0000000000000000
1377 3377 1.0000000000000000
1378 1378 1.0000000000000000
1378 3378 1.0000000000000000
1379 1379 1.0000000000000000
1379 3379 1.0000000000000000
1380 1380 1.0000000000000000
1380 3380 1.0000000000000000
1381 1381 1.0000000000000000
1381 3381 1.0000000000000000
1382 1382 1.0000000000000000
1382 3382 1.0000000000000000
1383 1383 1.0000000000000000
1383 3383 1.0000000000000000
1384 1384 1.0000000000000000
1384 3384 1.0000000000000000
1385 1385 1.0000000000000000
1385 3385 1.0000000000000000
1386 1386 1.0000000000000000
1386 3386 1.0000000000000000
1387 1387 1.0000000000000000
1387 3387 1.0000000000000000
1388 1388 1.0000000000000000
1388 3388 1.0000000000000000
1389 1389 1.0000000000000000
1389 3389 1.0000000000000000
1390 1390 1.0000000000000000
1390 3390 1.0000000000000000
1391 1391 1.0000000000000000
1391 3391 1.0000000000000000
1392 1392 1.0000000000000000
1392 3392 1.0000000000000000
1393 1393 1.0000000000000000
1393 3393 1.0000000000000000
1394 1394 1.0000000000000000
1394 3394 1.0000000000000000
1395 1395 1.0000000000000000
1395 3395 1.0000000000000000
1396 1396 1.0000000000000000
1396 3396 1.0000000000000000
1397 1397 1.0000000000000000
1397 3397 1.0000000000000000
1398 1398 1.0000000000000000
1398 3398 1.0000000000000000
1399 1399 1.0000000000000000
1399 3399 1.0000000000000000
1400 1400 1.0000000000000000
1400 3400 1.0000000000000000
1401 1401 1.0000000000000000
1401 3401 1.0000000000000000
1402 1402 1.0000000000000000
1402 3402 1.0000000000000000
1403 1403 1.0000000000000000
1403 3403 1.0000000000000000
1404 1404 1.0000000000000000
1404 3404 1.0000000000000000
1405 1405 1.0000000000000000
1405 3405 1.0000000000000000
1406 1406 1.0000000000000000
1406 3406 1.0000000000000000
1407 1407 1.0000000000000000
1407 3407 1.0000000000000000
1408 1408 1.0000000000000000
1408 3408 1.0000000000000000
1409 1409 1.0000000000000000
1409 3409 1.0000000000000000
1410 1410 1.0000000000000000
1410 3410 1.0000000000000000
1411 1411 1.0000000000000000
1411 3411 1.0000000000000000
1412 1412 1.0000000000000000
1412 3412 1.0000000000000000
1413 1413 1.0000000000000000
1413 3413 1.0000000000000000
1414 1414 1.0000000000000000
1414 3414 1.0000000000000000
1415 1415 1.0000000000000000
1415 3415 1.0000000000000000
1416 1416 1.0000000000000000
1416 3416 1.0000000000000000
1417 1417 1.0000000000000000
1417 3417 1.0000000000000000
1418 1418 1.0000000000000000
1418 3418 1.0000000000000000
1419 1419 1.0000000000000000
1419 3419 1.0000000000000000
1420 1420 1.0000000000000000
1420 3420 1.0000000000000000
1421 1421 1.0000000000000000
1421 3421 1.0000000000000000
1422 1422 1.0000000000000000
1422 3422 1.0000000000000000
1423 1423 1.0000000000000000
1423 3423 1.0000000000000000
1424 1424 1.0000000000000000
1424 3424 1.0000000000000000
1425 1425 1.0000000000000000
1425 3425 1.0000000000000000
1426 1426 1.0000000000000000
1426 3426 1.0000000000000000
1427 1427 1.0000000000000000
1427 3427 1.0000000000000000
1428 1428 1.0000000000000000
1428 3428 1.0000000000000000
1429 1429 1.0000000000000000
1429 3429 1.0000000000000000
1430 1430 1.0000000000000000
1430 3430 1.0000000000000000
1431 1431 1.0000000000000000
1431 3431 1.0000000000000000
1432 1432 1.0000000000000000
1432 3432 1.0000000000000000
1433 1433 1.0000000000000000
1433 3433 1.0000000000000000
1434 1434 1.0000000000000000
1434 3434 1.0000000000000000
1435 1435 1.0000000000000000
1435 3435 1.0000000000000000
1436 1436 1.0000000000000000
1436 3436 1.0000000000000000
1437 1437 1.0000000000000000
1437 3437 1.0000000000000000
1438 1438 1.0000000000000000
1438 3438 1.0000000000000000
1439 1439 1.0000000000000000
1439 3439 1.0000000000000000
1440 1440 1.0000000000000000
1440 3440 1.0000000000000000
1441 1441 1.0000000000000000
1441 3441 1.0000000000000000
1442 1442 1.0000000000000000
1442 3442 1.0000000000000000
1443 1443 1.0000000000000000
1443 3443 1.0000000000000000
1444 1444 1.0000000000000000
1444 3444 1.0000000000000000
1445 1445 1.0000000000000000
1445 3445 1.0000000000000000
1446 1446 1.0000000000000000
1446 3446 1.0000000000000000
1447 1447 1.0000000000000000
1447 3447 1.0000000000000000
1448 1448 1.0000000000000000
1448 3448 1.0000000000000000
1449 1449 1.0000000000000000
1449 3449 1.0000000000000000
1450 1450 1.0000000000000000
1450 3450 1.0000000000000000
1451 1451 1.0000000000000000
1451 3451 1.0000000000000000
1452 1452 1.0000000000000000
1452 3452 1.0000000000000000
1453 1453 1.0000000000000000
1453 3453 1.0000000000000000
1454 1454 1.0000000000000000
1454 3454 1.0000000000000000
1455 1455 1.0000000000000000
1455 3455 1.0000000000000000
1456 1456 1.0000000000000000
1456 3456 1.0000000000000000
1457 1457 1.0000000000000000
1457 3457 1.0000000000000000
1458 1458 1.0000000000000000
1458 3458 1.0000000000000000
1459 1459 1.0000000000000000
1459 3459 1.0000000000000000
1460 1460 1.0000000000000000
1460 3460 1.0000000000000000
1461 1461 1.0000000000000000
1461 3461 1.0000000000000000
1462 1462 1.0000000000000000
1462 3462 1.0000000000000000
1463 1463 1.0000000000000000
1463 3463 1.0000000000000000
1464 1464 1.0000000000000000
1464 3464 1.0000000000000000
1465 1465 1.0000000000000000
1465 3465 1.0000000000000000
1466 1466 1.0000000000000000
1466 3466 1.0000000000000000
1467 1467 1.0000000000000000
1467 3467 1.0000000000000000
1468 1468 1.0000000000000000
1468 3468 1.0000000000000000
1469 1469 1.0000000000000000
1469 3469 1.0000000000000000
1470 1470 1.0000000000000000
1470 3470 1.0000000000000000
1471 1471 1.0000000000000000
1471 3471 1.0000000000000000
1472 1472 1.0000000000000000
1472 3472 1.0000000000000000
1473 1473 1.0000000000000000
1473 3473 1.0000000000000000
1474 1474 1.0000000000000000
1474 3474 1.0000000000000000
1475 1475 1.0000000000000000
1475 3475 1.0000000000000000
1476 1476 1.0000000000000000
1476 3476 1.0000000000000000
1477 1477 1.0000000000000000
1477 3477 1.0000000000000000
1478 1478 1.0000000000000000
1478 3478 1.0000000000000000
1479 1479 1.0000000000000000
1479 3479 1.0000000000000000
1480 1480 1.0000000000000000
1480 3480 1.0000000000000000
1481 1481 1.0000000000000000
1481 3481 1.0000000000000000
1482 1482 1.0000000000000000
1482 3482 1.0000000000000000
1483 1483 1.0000000000000000
1483 3483 1.0000000000000000
1484 1484 1.0000000000000000
1484 3484 1.0000000000000000
1485 1485 1.0000000000000000
1485 3485 1.0000000000000000
1486 1486 1.0000000000000000
1486 3486 1.0000000000000000
1487 1487 1.0000000000000000
1487 3487 1.0000000000000000
1488 1488 1.0000000000000000
1488 3488 1.0000000000000000
1489 1489 1.0000000000000000
1489 3489 1.0000000000000000
1490 1490 1.0000000000000000
1490 3490 1.0000000000000000
1491 1491 1.0000000000000000
1491 3491 1.0000000000000000
1492 1492 1.0000000000000000
1492 3492 1.0000000000000000
1493 1493 1.0000000000000000
1493 3493 1.0000000000000000
1494 1494 1.0000000000000000
1494 3494 1.0000000000000000
1495 1495 1.0000000000000000
1495 3495 1.0000000000000000
1496 1496 1.0000000000000000
1496 3496 1.0000000000000000
1497 1497 1.0000000000000000
1497 3497 1.0000000000000000
1498 1498 1.0000000000000000
1498 3498 1.0000000000000000
1499 1499 1.0000000000000000
1499 3499 1.0000000000000000
1500 1500 1.0000000000000000
1500 3500 1.0000000000000000
1501 1501 1.0000000000000000
1501 3501 1.0000000000000000
1502 1502 1.0000000000000000
1502 3502 1.0000000000000000
1503 1503 1.0000000000000000
1503 3503 1.0000000000000000
1504 1504 1.0000000000000000
1504 3504 1.0000000000000000
1505 1505 1.0000000000000000
1505 3505 1.0000000000000000
1506 1506 1.0000000000000000
1506 3506 1.0000000000000000
1507 1507 1.0000000000000000
1507 3507 1.0000000000000000
1508 1508 1.0000000000000000
1508 3508 1.0000000000000000
1509 1509 1.0000000000000000
1509 3509 1.0000000000000000
1510 1510 1.0000000000000000
1510 3510 1.0000000000000000
1511 1511 1.0000000000000000
1511 3511 1.0000000000000000
1512 1512 1.0000000000000000
1512 3512 1.0000000000000000
1513 1513 1.0000000000000000
1513 3513 1.0000000000000000
1514 1514 1.0000000000000000
1514 3514 1.0000000000000000
1515 1515 1.0000000000000000
1515 3515 1.0000000000000000
1516 1516 1.0000000000000000
1516 3516 1.0000000000000000
1517 1517 1.0000000000000000
1517 3517 1.0000000000000000
1518 1518 1.0000000000000000
1518 3518 1.0000000000000000
1519 1519 1.0000000000000000
1519 3519 1.0000000000000000
1520 1520 1.0000000000000000
1520 3520 1.0000000000000000
1521 1521 1.0000000000000000
1521 3521 1.0000000000000000
1522 1522 1.0000000000000000
1522 3522 1.0000000000000000
1523 1523 1.0000000000000000
1523 3523 1.0000000000000000
1524 1524 1.0000000000000000
1524 3524 1.0000000000000000
1525 1525 1.0000000000000000
1525 3525 1.0000000000000000
1526 1526 1.0000000000000000
1526 3526 1.0000000000000000
1527 1527 1.0000000000000000
1527 3527 1.0000000000000000
1528 1528 1.0000000000000000
1528 3528 1.0000000000000000
1529 1529 1.0000000000000000
1529 3529 1.0000000000000000
1530 1530 1.0000000000000000
1530 3530 1.0000000000000000
1531 1531 1.0000000000000000
1531 3531 1.0000000000000000
1532 1532 1.0000000000000000
1532 3532 1.0000000000000000
1533 1533 1.0000000000000000
1533 3533 1.0000000000000000
1534 1534 1.0000000000000000
1534 3534 1.0000000000000000
1535 1535 1.0000000000000000
1535 3535 1.0000000000000000
1536 1536 1.0000000000000000
1536 3536 1.0000000000000000
1537 1537 1.0000000000000000
1537 3537 1.0000000000000000
1538 1538 1.0000000000000000
1538 3538 1.0000000000000000
1539 1539 1.0000000000000000
1539 3539 1.0000000000000000
1540 1540 1.0000000000000000
1540 3540 1.0000000000000000
1541 1541 1.0000000000000000
1541 3541 1.0000000000000000
1542 1542 1.0000000000000000
1542 3542 1.0000000000000000
1543 1543 1.0000000000000000
1543 3543 1.0000000000000000
1544 1544 1.0000000000000000
1544 3544 1.0000000000000000
1545 1545 1.0000000000000000
1545 3545 1.0000000000000000
1546 1546 1.0000000000000000
1546 3546 1.0000000000000000
1547 1547 1.0000000000000000
1547 3547 1.0000000000000000
1548 1548 1.0000000000000000
1548 3548 1.0000000000000000
1549 1549 1.0000000000000000
1549 3549 1.0000000000000000
1550 1550 1.0000000000000000
1550 3550 1.0000000000000000
1551 1551 1.0000000000000000
1551 3551 1.0000000000000000
1552 1552 1.0000000000000000
1552 3552 1.0000000000000000
1553 1553 1.0000000000000000
1553 3553 1.0000000000000000
1554 1554 1.0000000000000000
1554 3554 1.0000000000000000
1555 1555 1.0000000000000000
1555 3555 1.0000000000000000
1556 1556 1.0000000000000000
1556 3556 1.0000000000000000
1557 1557 1.0000000000000000
1557 3557 1.0000000000000000
1558 1558 1.0000000000000000
1558 3558 1.0000000000000000
1559 1559 1.0000000000000000
1559 3559 1.0000000000000000
1560 1560 1.0000000000000000
1560 3560 1.0000000000000000
1561 1561 1.0000000000000000
1561 3561 1.0000000000000000
1562 1562 1.0000000000000000
1562 3562 1.0000000000000000
1563 1563 1.0000000000000000
1563 3563 1.0000000000000000
1564 1564 1.0000000000000000
1564 3564 1.0000000000000000
1565 1565 1.0000000000000000
1565 3565 1.0000000000000000
1566 1566 1.0000000000000000
1566 3566 1.0000000000000000
1567 1567 1.0000000000000000
1567 3567 1.0000000000000000
1568 1568 1.0000000000000000
1568 3568 1.0000000000000000
1569 1569 1.0000000000000000
1569 3569 1.0000000000000000
1570 1570 1.0000000000000000
1570 3570 1.0000000000000000
1571 1571 1.0000000000000000
1571 3571 1.0000000000000000
1572 1572 1.0000000000000000
1572 3572 1.0000000000000000
1573 1573 1.0000000000000000
1573 3573 1.0000000000000000
1574 1574 1.0000000000000000
1574 3574 1.0000000000000000
1575 1575 1.0000000000000000
1575 3575 1.0000000000000000
1576 1576 1.0000000000000000
1576 3576 1.0000000000000000
1577 1577 1.0000000000000000
1577 3577 1.0000000000000000
1578 1578 1.0000000000000000
1578 3578 1.0000000000000000
1579 1579 1.0000000000000000
1579 3579 1.0000000000000000
1580 1580 1.0000000000000000
1580 3580 1.0000000000000000
1581 1581 1.0000000000000000
1581 3581 1.0000000000000000
1582 1582 1.0000000000000000
1582 3582 1.0000000000000000
1583 1583 1.0000000000000000
1583 3583 1.0000000000000000
1584 1584 1.0000000000000000
1584 3584 1.0000000000000000
1585 1585 1.0000000000000000
1585 3585 1.0000000000000000
1586 1586 1.0000000000000000
1586 3586 1.0000000000000000
1587 1587 1.0000000000000000
1587 3587 1.0000000000000000
1588 1588 1.0000000000000000
1588 3588 1.0000000000000000
1589 1589 1.0000000000000000
1589 3589 1.0000000000000000
1590 1590 1.0000000000000000
1590 3590 1.0000000000000000
1591 1591 1.0000000000000000
1591 3591 1.0000000000000000
1592 1592 1.0000000000000000
1592 3592 1.0000000000000000
1593 1593 1.0000000000000000
1593 3593 1.0000000000000000
1594 1594 1.0000000000000000
1594 3594 1.0000000000000000
1595 1595 1.0000000000000000
1595 3595 1.0000000000000000
1596 1596 1.0000000000000000
1596 3596 1.0000000000000000
1597 1597 1.0000000000000000
1597 3597 1.0000000000000000
1598 1598 1.0000000000000000
1598 3598 1.0000000000000000
1599 1599 1.0000000000000000
1599 3599 1.0000000000000000
1600 1600 1.0000000000000000
1600 3600 1.0000000000000000
1601 1601 1.0000000000000000
1601 3601 1.0000000000000000
1602 1602 1.0000000000000000
1602 3602 1.0000000000000000
1603 1603 1.0000000000000000
1603 3603 1.0000000000000000
1604 1604 1.0000000000000000
1604 3604 1.0000000000000000
1605 1605 1.0000000000000000
1605 3605 1.0000000000000000
1606 1606 1.0000000000000000
1606 3606 1.0000000000000000
1607 1607 1.0000000000000000
1607 3607 1.0000000000000000
1608 1608 1.0000000000000000
1608 3608 1.0000000000000000
1609 1609 1.0000000000000000
1609 3609 1.0000000000000000
1610 1610 1.0000000000000000
1610 3610 1.0000000000000000
1611 1611 1.0000000000000000
1611 3611 1.0000000000000000
1612 1612 1.0000000000000000
1612 3612 1.0000000000000000
1613 1613 1.0000000000000000
1613 3613 1.0000000000000000
1614 1614 1.0000000000000000
1614 3614 1.0000000000000000
1615 1615 1.0000000000000000
1615 3615 1.0000000000000000
1616 1616 1.0000000000000000
1616 3616 1.0000000000000000
1617 1617 1.0000000000000000
1617 3617 1.0000000000000000
1618 1618 1.0000000000000000
1618 3618 1.0000000000000000
1619 1619 1.0000000000000000
1619 3619 1.0000000000000000
1620 1620 1.0000000000000000
1620 3620 1.0000000000000000
1621 1621 1.0000000000000000
1621 3621 1.0000000000000000
1622 1622 1.0000000000000000
1622 3622 1.0000000000000000
1623 1623 1.0000000000000000
1623 3623 1.0000000000000000
1624 1624 1.0000000000000000
1624 3624 1.0000000000000000
1625 1625 1.0000000000000000
1625 3625 1.0000000000000000
1626 1626 1.0000000000000000
1626 3626 1.0000000000000000
1627 1627 1.0000000000000000
1627 3627 1.0000000000000000
1628 1628 1.0000000000000000
1628 3628 1.0000000000000000
1629 1629 1.0000000000000000
1629 3629 1.0000000000000000
1630 1630 1.0000000000000000
1630 3630 1.0000000000000000
1631 1631 1.0000000000000000
1631 3631 1.0000000000000000
1632 1632 1.0000000000000000
1632 3632 1.0000000000000000
1633 1633 1.0000000000000000
1633 3633 1.0000000000000000
1634 1634 1.0000000000000000
1634 3634 1.0000000000000000
1635 1635 1.0000000000000000
1635 3635 1.0000000000000000
1636 1636 1.0000000000000000
1636 3636 1.0000000000000000
1637 1637 1.0000000000000000
1637 3637 1.0000000000000000
1638 1638 1.0000000000000000
1638 3638 1.0000000000000000
1639 1639 1.0000000000000000
1639 3639 1.0000000000000000
1640 1640 1.0000000000000000
1640 3640 1.0000000000000000
1641 1641 1.0000000000000000
1641 3641 1.0000000000000000
1642 1642 1.0000000000000000
1642 3642 1.0000000000000000
1643 1643 1.0000000000000000
1643 3643 1.0000000000000000
1644 1644 1.0000000000000000
1644 3644 1.0000000000000000
1645 1645 1.0000000000000000
1645 3645 1.0000000000000000
1646 1646 1.0000000000000000
1646 3646 1.0000000000000000
1647 1647 1.0000000000000000
1647 3647 1.0000000000000000
1648 1648 1.0000000000000000
1648 3648 1.0000000000000000
1649 1649 1.0000000000000000
1649 3649 1.0000000000000000
1650 1650 1.0000000000000000
1650 3650 1.0000000000000000
1651 1651 1.0000000000000000
1651 3651 1.0000000000000000
1652 1652 1.0000000000000000
1652 3652 1.0000000000000000
1653 1653 1.0000000000000000
1653 3653 1.0000000000000000
1654 1654 1.0000000000000000
1654 3654 1.0000000000000000
1655 1655 1.0000000000000000
1655 3655 1.0000000000000000
1656 1656 1.0000000000000000
1656 3656 1.0000000000000000
1657 1657 1.0000000000000000
1657 3657 1.0000000000000000
1658 1658 1.0000000000000000
1658 3658 1.0000000000000000
1659 1659 1.0000000000000000
1659 3659 1.0000000000000000
1660 1660 1.0000000000000000
1660 3660 1.0000000000000000
1661 1661 1.0000000000000000
1661 3661 1.0000000000000000
1662 1662 1.0000000000000000
1662 3662 1.0000000000000000
1663 1663 1.0000000000000000
1663 3663 1.0000000000000000
1664 1664 1.0000000000000000
1664 3664 1.0000000000000000
1665 1665 1.0000000000000000
1665 3665 1.0000000000000000
1666 1666 1.0000000000000000
1666 3666 1.0000000000000000
1667 1667 1.0000000000000000
1667 3667 1.0000000000000000
1668 1668 1.0000000000000000
1668 3668 1.0000000000000000
1669 1669 1.0000000000000000
1669 3669 1.0000000000000000
1670 1670 1.0000000000000000
1670 3670 1.0000000000000000
1671 1671 1.0000000000000000
1671 3671 1.0000000000000000
1672 1672 1.0000000000000000
1672 3672 1.0000000000000000
1673 1673 1.0000000000000000
1673 3673 1.0000000000000000
1674 1674 1.0000000000000000
1674 3674 1.0000000000000000
1675 1675 1.0000000000000000
1675 3675 1.0000000000000000
1676 1676 1.0000000000000000
1676 3676 1.0000000000000000
1677 1677 1.0000000000000000
1677 3677 1.0000000000000000
1678 1678 1.0000000000000000
1678 3678 1.0000000000000000
1679 1679 1.0000000000000000
1679 3679 1.0000000000000000
1680 1680 1.0000000000000000
1680 3680 1.0000000000000000
1681 1681 1.0000000000000000
1681 3681 1.0000000000000000
1682 1682 1.0000000000000000
1682 3682 1.0000000000000000
1683 1683 1.0000000000000000
1683 3683 1.0000000000000000
1684 1684 1.0000000000000000
1684 3684 1.0000000000000000
1685 1685 1.0000000000000000
1685 3685 1.0000000000000000
1686 1686 1.0000000000000000
1686 3686 1.0000000000000000
1687 1687 1.0000000000000000
1687 3687 1.0000000000000000
1688 1688 1.0000000000000000
1688 3688 1.0000000000000000
1689 1689 1.0000000000000000
1689 3689 1.0000000000000000
1690 1690 1.0000000000000000
1690 3690 1.0000000000000000
1691 1691 1.0000000000000000
1691 3691 1.0000000000000000
1692 1692 1.0000000000000000
1692 3692 1.0000000000000000
1693 1693 1.0000000000000000
1693 3693 1.0000000000000000
1694 1694 1.0000000000000000
1694 3694 1.0000000000000000
1695 1695 1.0000000000000000
1695 3695 1.0000000000000000
1696 1696 1.0000000000000000
1696 3696 1.0000000000000000
1697 1697 1.0000000000000000
1697 3697 1.0000000000000000
1698 1698 1.0000000000000000
1698 3698 1.0000000000000000
1699 1699 1.0000000000000000
1699 3699 1.0000000000000000
1700 1700 1.0000000000000000
1700 3700 1.0000000000000000
1701 1701 1.0000000000000000
1701 3701 1.0000000000000000
1702 1702 1.0000000000000000
1702 3702 1.0000000000000000
1703 1703 1.0000000000000000
1703 3703 1.0000000000000000
1704 1704 1.0000000000000000
1704 3704 1.0000000000000000
1705 1705 1.0000000000000000
1705 3705 1.0000000000000000
1706 1706 1.0000000000000000
1706 3706 1.0000000000000000
1707 1707 1.0000000000000000
1707 3707 1.0000000000000000
1708 1708 1.0000000000000000
1708 3708 1.0000000000000000
1709 1709 1.0000000000000000
1709 3709 1.0000000000000000
1710 1710 1.0000000000000000
1710 3710 1.0000000000000000
1711 1711 1.0000000000000000
1711 3711 1.0000000000000000
1712 1712 1.0000000000000000
1712 3712 1.0000000000000000
1713 1713 1.0000000000000000
1713 3713 1.0000000000000000
1714 1714 1.0000000000000000
1714 3714 1.0000000000000000
1715 1715 1.0000000000000000
1715 3715 1.0000000000000000
1716 1716 1.0000000000000000
1716 3716 1.0000000000000000
1717 1717 1.0000000000000000
1717 3717 1.0000000000000000
1718 1718 1.0000000000000000
1718 3718 1.0000000000000000
1719 1719 1.0000000000000000
1719 3719 1.0000000000000000
1720 1720 1.0000000000000000
1720 3720 1.0000000000000000
1721 1721 1.0000000000000000
1721 3721 1.0000000000000000
1722 1722 1.0000000000000000
1722 3722 1.0000000000000000
1723 1723 1.0000000000000000
1723 3723 1.0000000000000000
1724 1724 1.0000000000000000
1724 3724 1.0000000000000000
1725 1725 1.0000000000000000
1725 3725 1.0000000000000000
1726 1726 1.0000000000000000
1726 3726 1.0000000000000000
1727 1727 1.0000000000000000
1727 3727 1.0000000000000000
1728 1728 1.0000000000000000
1728 3728 1.0000000000000000
1729 1729 1.0000000000000000
1729 3729 1.0000000000000000
1730 1730 1.0000000000000000
1730 3730 1.0000000000000000
1731 1731 1.0000000000000000
1731 3731 1.0000000000000000
1732 1732 1.0000000000000000
1732 3732 1.0000000000000000
1733 1733 1.0000000000000000
1733 3733 1.0000000000000000
1734 1734 1.0000000000000000
1734 3734 1.0000000000000000
1735 1735 1.0000000000000000
1735 3735 1.0000000000000000
1736 1736 1.0000000000000000
1736 3736 1.0000000000000000
1737 1737 1.0000000000000000
1737 3737 1.0000000000000000
1738 1738 1.0000000000000000
1738 3738 1.0000000000000000
1739 1739 1.0000000000000000
1739 3739 1.0000000000000000
1740 1740 1.0000000000000000
1740 3740 1.0000000000000000
1741 1741 1.0000000000000000
1741 3741 1.0000000000000000
1742 1742 1.0000000000000000
1742 3742 1.0000000000000000
1743 1743 1.0000000000000000
1743 3743 1.0000000000000000
1744 1744 1.0000000000000000
1744 3744 1.0000000000000000
1745 1745 1.0000000000000000
1745 3745 1.0000000000000000
1746 1746 1.0000000000000000
1746 3746 1.0000000000000000
1747 1747 1.0000000000000000
1747 3747 1.0000000000000000
1748 1748 1.0000000000000000
1748 3748 1.0000000000000000
1749 1749 1.0000000000000000
1749 3749 1.0000000000000000
1750 1750 1.0000000000000000
1750 3750 1.0000000000000000
1751 1751 1.0000000000000000
1751 3751 1.0000000000000000
1752 1752 1.0000000000000000
1752 3752 1.0000000000000000
1753 1753 1.0000000000000000
1753 3753 1.0000000000000000
1754 1754 1.0000000000000000
1754 3754 1.0000000000000000
1755 1755 1.0000000000000000
1755 3755 1.0000000000000000
1756 1756 1.0000000000000000
1756 3756 1.0000000000000000
1757 1757 1.0000000000000000
1757 3757 1.0000000000000000
1758 1758 1.0000000000000000
1758 3758 1.0000000000000000
1759 1759 1.0000000000000000
1759 3759 1.0000000000000000
1760 1760 1.0000000000000000
1760 3760 1.0000000000000000
1761 1761 1.0000000000000000
1761 3761 1.0000000000000000
1762 1762 1.0000000000000000
1762 3762 1.0000000000000000
1763 1763 1.0000000000000000
1763 3763 1.0000000000000000
1764 1764 1.0000000000000000
1764 3764 1.0000000000000000
1765 1765 1.0000000000000000
1765 3765 1.0000000000000000
1766 1766 1.0000000000000000
1766 3766 1.0000000000000000
1767 1767 1.0000000000000000
1767 3767 1.0000000000000000
1768 1768 1.0000000000000000
1768 3768 1.0000000000000000
1769 1769 1.0000000000000000
1769 3769 1.0000000000000000
1770 1770 1.0000000000000000
1770 3770 1.0000000000000000
1771 1771 1.0000000000000000
1771 3771 1.0000000000000000
1772 1772 1.0000000000000000
1772 3772 1.0000000000000000
1773 1773 1.0000000000000000
1773 3773 1.0000000000000000
1774 1774 1.0000000000000000
1774 3774 1.0000000000000000
1775 1775 1.0000000000000000
1775 3775 1.0000000000000000
1776 1776 1.0000000000000000
1776 3776 1.0000000000000000
1777 1777 1.0000000000000000
1777 3777 1.0000000000000000
1778 1778 1.0000000000000000
1778 3778 1.0000000000000000
1779 1779 1.0000000000000000
1779 3779 1.0000000000000000
1780 1780 1.0000000000000000
1780 3780 1.0000000000000000
1781 1781 1.0000000000000000
1781 3781 1.0000000000000000
1782 1782 1.0000000000000000
1782 3782 1.0000000000000000
1783 1783 1.0000000000000000
1783 3783 1.0000000000000000
1784 1784 1.0000000000000000
1784 3784 1.0000000000000000
1785 1785 1.0000000000000000
1785 3785 1.0000000000000000
1786 1786 1.0000000000000000
1786 3786 1.0000000000000000
1787 1787 1.0000000000000000
1787 3787 1.0000000000000000
1788 1788 1.0000000000000000
1788 3788 1.0000000000000000
1789 1789 1.0000000000000000
1789 3789 1.0000000000000000
1790 1790 1.0000000000000000
1790 3790 1.0000000000000000
1791 1791 1.0000000000000000
1791 3791 1.0000000000000000
1792 1792 1.0000000000000000
1792 3792 1.0000000000000000
1793 1793 1.0000000000000000
1793 3793 1.0000000000000000
1794 1794 1.0000000000000000
1794 3794 1.0000000000000000
1795 1795 1.0000000000000000
1795 3795 1.0000000000000000
1796 1796 1.0000000000000000
1796 3796 1.0000000000000000
1797 1797 1.0000000000000000
1797 3797 1.0000000000000000
1798 1798 1.0000000000000000
1798 3798 1.0000000000000000
1799 1799 1.0000000000000000
1799 3799 1.0000000000000000
1800 1800 1.0000000000000000
1800 3800 1.0000000000000000
1801 1801 1.0000000000000000
1801 3801 1.0000000000000000
1802 1802 1.0000000000000000
1802 3802 1.0000000000000000
1803 1803 1.0000000000000000
1803 3803 1.0000000000000000
1804 1804 1.0000000000000000
1804 3804 1.0000000000000000
1805 1805 1.0000000000000000
1805 3805 1.0000000000000000
1806 1806 1.0000000000000000
1806 3806 1.0000000000000000
1807 1807 1.0000000000000000
1807 3807 1.0000000000000000
1808 1808 1.0000000000000000
1808 3808 1.0000000000000000
1809 1809 1.0000000000000000
1809 3809 1.0000000000000000
1810 1810 1.0000000000000000
1810 3810 1.0000000000000000
1811 1811 1.0000000000000000
1811 3811 1.0000000000000000
1812 1812 1.0000000000000000
1812 3812 1.0000000000000000
1813 1813 1.0000000000000000
1813 3813 1.0000000000000000
1814 1814 1.0000000000000000
1814 3814 1.0000000000000000
1815 1815 1.0000000000000000
1815 3815 1.0000000000000000
1816 1816 1.0000000000000000
1816 3816 1.0000000000000000
1817 1817 1.0000000000000000
1817 3817 1.0000000000000000
1818 1818 1.0000000000000000
1818 3818 1.0000000000000000
1819 1819 1.0000000000000000
1819 3819 1.0000000000000000
1820 1820 1.0000000000000000
1820 3820 1.0000000000000000
1821 1821 1.0000000000000000
1821 3821 1.0000000000000000
1822 1822 1.0000000000000000
1822 3822 1.0000000000000000
1823 1823 1.0000000000000000
1823 3823 1.0000000000000000
1824 1824 1.0000000000000000
1824 3824 1.0000000000000000
1825 1825 1.0000000000000000
1825 3825 1.0000000000000000
1826 1826 1.0000000000000000
1826 3826 1.0000000000000000
1827 1827 1.0000000000000000
1827 3827 1.0000000000000000
1828 1828 1.0000000000000000
1828 3828 1.0000000000000000
1829 1829 1.0000000000000000
1829 3829 1.0000000000000000
1830 1830 1.0000000000000000
1830 3830 1.0000000000000000
1831 1831 1.0000000000000000
1831 3831 1.0000000000000000
1832 1832 1.0000000000000000
1832 3832 1.0000000000000000
1833 1833 1.0000000000000000
1833 3833 1.0000000000000000
1834 1834 1.0000000000000000
1834 3834 1.0000000000000000
1835 1835 1.0000000000000000
1835 3835 1.0000000000000000
1836 1836 1.0000000000000000
1836 3836 1.0000000000000000
1837 1837 1.0000000000000000
1837 3837 1.0000000000000000
1838 1838 1.0000000000000000
1838 3838 1.0000000000000000
1839 1839 1.0000000000000000
1839 3839 1.0000000000000000
1840 1840 1.0000000000000000
1840 3840 1.0000000000000000
1841 1841 1.0000000000000000
1841 3841 1.0000000000000000
1842 1842 1.0000000000000000
1842 3842 1.0000000000000000
1843 1843 1.0000000000000000
1843 3843 1.0000000000000000
1844 1844 1.0000000000000000
1844 3844 1.0000000000000000
1845 1845 1.0000000000000000
1845 3845 1.0000000000000000
1846 1846 1.0000000000000000
1846 3846 1.0000000000000000
1847 1847 1.0000000000000000
1847 3847 1.0000000000000000
1848 1848 1.0000000000000000
1848 3848 1.0000000000000000
1849 1849 1.0000000000000000
1849 3849 1.0000000000000000
1850 1850 1.0000000000000000
1850 3850 1.0000000000000000
1851 1851 1.0000000000000000
1851 3851 1.0000000000000000
1852 1852 1.0000000000000000
1852 3852 1.0000000000000000
1853 1853 1.0000000000000000
1853 3853 1.0000000000000000
1854 1854 1.0000000000000000
1854 3854 1.0000000000000000
1855 1855 1.0000000000000000
1855 3855 1.0000000000000000
1856 1856 1.0000000000000000
1856 3856 1.0000000000000000
1857 1857 1.0000000000000000
1857 3857 1.0000000000000000
1858 1858 1.0000000000000000
1858 3858 1.0000000000000000
1859 1859 1.0000000000000000
1859 3859 1.0000000000000000
1860 1860 1.0000000000000000
1860 3860 1.0000000000000000
1861 1861 1.0000000000000000
1861 3861 1.0000000000000000
1862 1862 1.0000000000000000
1862 3862 1.0000000000000000
1863 1863 1.0000000000000000
1863 3863 1.0000000000000000
1864 1864 1.0000000000000000
1864 3864 1.0000000000000000
1865 1865 1.0000000000000000
1865 3865 1.0000000000000000
1866 1866 1.0000000000000000
1866 3866 1.0000000000000000
1867 1867 1.0000000000000000
1867 3867 1.0000000000000000
1868 1868 1.0000000000000000
1868 3868 1.0000000000000000
1869 1869 1.0000000000000000
1869 3869 1.0000000000000000
1870 1870 1.0000000000000000
1870 3870 1.0000000000000000
1871 1871 1.0000000000000000
1871 3871 1.0000000000000000
1872 1872 1.0000000000000000
1872 3872 1.0000000000000000
1873 1873 1.0000000000000000
1873 3873 1.0000000000000000
1874 1874 1.0000000000000000
1874 3874 1.0000000000000000
1875 1875 1.0000000000000000
1875 3875 1.0000000000000000
1876 1876 1.0000000000000000
1876 3876 1.0000000000000000
1877 1877 1.0000000000000000
1877 3877 1.0000000000000000
1878 1878 1.0000000000000000
1878 3878 1.0000000000000000
1879 1879 1.0000000000000000
1879 3879 1.0000000000000000
1880 1880 1.0000000000000000
1880 3880 1.0000000000000000
1881 1881 1.0000000000000000
1881 3881 1.0000000000000000
1882 1882 1.0000000000000000
1882 3882 1.0000000000000000
1883 1883 1.0000000000000000
1883 3883 1.0000000000000000
1884 1884 1.0000000000000000
1884 3884 1.0000000000000000
1885 1885 1.0000000000000000
1885 3885 1.0000000000000000
1886 1886 1.0000000000000000
1886 3886 1.0000000000000000
1887 1887 1.0000000000000000
1887 3887 1.0000000000000000
1888 1888 1.0000000000000000
1888 3888 1.0000000000000000
1889 1889 1.0000000000000000
1889 3889 1.0000000000000000
1890 1890 1.0000000000000000
1890 3890 1.0000000000000000
1891 1891 1.0000000000000000
1891 3891 1.0000000000000000
1892 1892 1.0000000000000000
1892 3892 1.0000000000000000
1893 1893 1.0000000000000000
1893 3893 1.0000000000000000
1894 1894 1.0000000000000000
1894 3894 1.0000000000000000
1895 1895 1.0000000000000000
1895 3895 1.0000000000000000
1896 1896 1.0000000000000000
1896 3896 1.0000000000000000
1897 1897 1.0000000000000000
1897 3897 1.0000000000000000
1898 1898 1.0000000000000000
1898 3898 1.0000000000000000
1899 1899 1.0000000000000000
1899 3899 1.0000000000000000
1900 1900 1.0000000000000000
1900 3900 1.0000000000000000
1901 1901 1.0000000000000000
1901 3901 1.0000000000000000
1902 1902 1.0000000000000000
1902 3902 1.0000000000000000
1903 1903 1.0000000000000000
1903 3903 1.0000000000000000
1904 1904 1.0000000000000000
1904 3904 1.0000000000000000
1905 1905 1.0000000000000000
1905 3905 1.0000000000000000
1906 1906 1.0000000000000000
1906 3906 1.0000000000000000
1907 1907 1.0000000000000000
1907 3907 1.0000000000000000
1908 1908 1.0000000000000000
1908 3908 1.0000000000000000
1909 1909 1.0000000000000000
1909 3909 1.0000000000000000
1910 1910 1.0000000000000000
1910 3910 1.0000000000000000
1911 1911 1.0000000000000000
1911 3911 1.0000000000000000
1912 1912 1.0000000000000000
1912 3912 1.0000000000000000
1913 1913 1.0000000000000000
1913 3913 1.0000000000000000
1914 1914 1.0000000000000000
1914 3914 1.0000000000000000
1915 1915 1.0000000000000000
1915 3915 1.0000000000000000
1916 1916 1.0000000000000000
1916 3916 1.0000000000000000
1917 1917 1.0000000000000000
1917 3917 1.0000000000000000
1918 1918 1.0000000000000000
1918 3918 1.0000000000000000
1919 1919 1.0000000000000000
1919 3919 1.0000000000000000
1920 1920 1.0000000000000000
1920 3920 1.0000000000000000
1921 1921 1.0000000000000000
1921 3921 1.0000000000000000
1922 1922 1.0000000000000000
1922 3922 1.0000000000000000
1923 1923 1.0000000000000000
1923 3923 1.0000000000000000
1924 1924 1.0000000000000000
1924 3924 1.0000000000000000
1925 1925 1.0000000000000000
1925 3925 1.0000000000000000
1926 1926 1.0000000000000000
1926 3926 1.0000000000000000
1927 1927 1.0000000000000000
1927 3927 1.0000000000000000
1928 1928 1.0000000000000000
1928 3928 1.0000000000000000
1929 1929 1.0000000000000000
1929 3929 1.0000000000000000
1930 1930 1.0000000000000000
1930 3930 1.0000000000000000
1931 1931 1.0000000000000000
1931 3931 1.0000000000000000
1932 1932 1.0000000000000000
1932 3932 1.0000000000000000
1933 1933 1.0000000000000000
1933 3933 1.0000000000000000
1934 1934 1.0000000000000000
1934 3934 1.0000000000000000
1935 1935 1.0000000000000000
1935 3935 1.0000000000000000
1936 1936 1.0000000000000000
1936 3936 1.0000000000000000
1937 1937 1.0000000000000000
1937 3937 1.0000000000000000
1938 1938 1.0000000000000000
1938 3938 1.0000000000000000
1939 1939 1.0000000000000000
1939 3939 1.0000000000000000
1940 1940 1.0000000000000000
1940 3940 1.0000000000000000
1941 1941 1.0000000000000000
1941 3941 1.0000000000000000
1942 1942 1.0000000000000000
1942 3942 1.0000000000000000
1943 1943 1.0000000000000000
1943 3943 1.0000000000000000
1944 1944 1.0000000000000000
1944 3944 1.0000000000000000
1945 1945 1.0000000000000000
1945 3945 1.0000000000000000
1946 1946 1.0000000000000000
1946 3946 1.0000000000000000
1947 1947 1.0000000000000000
1947 3947 1.0000000000000000
1948 1948 1.0000000000000000
1948 3948 1.0000000000000000
1949 1949 1.0000000000000000
1949 3949 1.0000000000000000
1950 1950 1.0000000000000000
1950 3950 1.0000000000000000
1951 1951 1.0000000000000000
1951 3951 1.0000000000000000
1952 1952 1.0000000000000000
1952 3952 1.0000000000000000
1953 1953 1.0000000000000000
1953 3953 1.0000000000000000
1954 1954 1.0000000000000000
1954 3954 1.0000000000000000
1955 1955 1.0000000000000000
1955 3955 1.0000000000000000
1956 1956 1.0000000000000000
1956 3956 1.0000000000000000
1957 1957 1.0000000000000000
1957 3957 1.0000000000000000
1958 1958 1.0000000000000000
1958 3958 1.0000000000000000
1959 1959 1.0000000000000000
1959 3959 1.0000000000000000
1960 1960 1.0000000000000000
1960 3960 1.0000000000000000
1961 1961 1.0000000000000000
1961 3961 1.0000000000000000
1962 1962 1.0000000000000000
1962 3962 1.0000000000000000
1963 1963 1.0000000000000000
1963 3963 1.0000000000000000
1964 1964 1.0000000000000000
1964 3964 1.0000000000000000
1965 1965 1.0000000000000000
1965 3965 1.0000000000000000
1966 1966 1.0000000000000000
1966 3966 1.0000000000000000
1967 1967 1.0000000000000000
1967 3967 1.0000000000000000
1968 1968 1.0000000000000000
1968 3968 1.0000000000000000
1969 1969 1.0000000000000000
1969 3969 1.0000000000000000
1970 1970 1.0000000000000000
1970 3970 1.0000000000000000
1971 1971 1.0000000000000000
1971 3971 1.0000000000000000
1972 1972 1.0000000000000000
1972 3972 1.0000000000000000
1973 1973 1.0000000000000000
1973 3973 1.0000000000000000
1974 1974 1.0000000000000000
1974 3974 1.0000000000000000
1975 1975 1.0000000000000000
1975 3975 1.0000000000000000
1976 1976 1.0000000000000000
1976 3976 1.0000000000000000
1977 1977 1.0000000000000000
1977 3977 1.0000000000000000
1978 1978 1.0000000000000000
1978 3978 1.0000000000000000
1979 1979 1.0000000000000000
1979 3979 1.0000000000000000
1980 1980 1.0000000000000000
1980 3980 1.0000000000000000
1981 1981 1.0000000000000000
1981 3981 1.0000000000000000
1982 1982 1.0000000000000000
1982 3982 1.0000000000000000
1983 1983 1.0000000000000000
1983 3983 1.0000000000000000
1984 1984 1.0000000000000000
1984 3984 1.0000000000000000
1985 1985 1.0000000000000000
1985 3985 1.0000000000000000
1986 1986 1.0000000000000000
1986 3986 1.0000000000000000
1987 1987 1.0000000000000000
1987 3987 1.0000000000000000
1988 1988 1.0000000000000000
1988 3988 1.0000000000000000
1989 1989 1.0000000000000000
1989 3989 1.0000000000000000
1990 1990 1.0000000000000000
1990 3990 1.0000000000000000
1991 1991 1.0000000000000000
1991 3991 1.0000000000000000
1992 1992 1.0000000000000000
1992 3992 1.0000000000000000
1993 1993 1.0000000000000000
1993 3993 1.0000000000000000
1994 1994 1.0000000000000000
1994 3994 1.0000000000000000
1995 1995 1.0000000000000000
1995 3995 1.0000000000000000
1996 1996 1.0000000000000000
1996 3996 1.0000000000000000
1997 1997 1.0000000000000000
1997 3997 1.0000000000000000
1998 1998 1.0000000000000000
1998 3998 1.0000000000000000
1999 1999 1.0000000000000000
1999 3999 1.0000000000000000
2000 2000 1.0000000000000000
2000 4000 1.0000000000000000
2001 1 1.0000000000000000
2001 2 1.0000000000000000
2001 3 1.0000000000000000
2001 4 1.0000000000000000
2001 5 1.0000000000000000
2001 6 1.0000000000000000
2001 7 1.0000000000000000
2001 8 1.0000000000000000
2001 9 1.0000000000000000
2001 10 1.0000000000000000
2001 11 1.0000000000000000
2001 12 1.0000000000000000
2001 13 1.0000000000000000
2001 14 1.0000000000000000
2001 15 1.0000000000000000
2001 16 1.0000000000000000
2001 17 1.0000000000000000
2001 18 1.0000000000000000
2001 19 1.0000000000000000
2001 20 1.0000000000000000
2001 21 1.0000000000000000
2001 22 1.0000000000000000
2001 23 1.0000000000000000
2001 24 1.0000000000000000
2001 25 1.0000000000000000
2001 26 1.0000000000000000
2001 27 1.0000000000000000
2001 28 1.0000000000000000
2001 29 1.0000000000000000
2001 30 1.0000000000000000
2001 31 1.0000000000000000
2001 32 1.0000000000000000
2001 33 1.0000000000000000
2001 34 1.0000000000000000
2001 35 1.0000000000000000
2001 36 1.0000000000000000
2001 37 1.0000000000000000
2001 38 1.0000000000000000
2001 39 1.0000000000000000
2001 40 1.0000000000000000
2001 41 1.0000000000000000
2001 42 1.0000000000000000
2001 43 1.0000000000000000
2001 44 1.0000000000000000
2001 45 1.0000000000000000
2001 46 1.0000000000000000
2001 47 1.0000000000000000
2001 48 1.0000000000000000
2001 49 1.0000000000000000
2001 50 1.0000000000000000
2001 51 1.0000000000000000
2001 52 1.0000000000000000
2001 53 1.0000000000000000
2001 54 1.0000000000000000
2001 55 1.0000000000000000
2001 56 1.0000000000000000
2001 57 1.0000000000000000
2001 58 1.0000000000000000
2001 59 1.0000000000000000
2001 60 1.0000000000000000
2001 61 1.0000000000000000
2001 62 1.0000000000000000
2001 63 1.0000000000000000
2001 64 1.0000000000000000
2001 65 1.0000000000000000
2001 66 1.0000000000000000
2001 67 1.0000000000000000
2001 68 1.0000000000000000
2001 69 1.0000000000000000
2001 70 1.0000000000000000
2001 71 1.0000000000000000
2001 72 1.0000000000000000
2001 73 1.0000000000000000
2001 74 1.0000000000000000
2001 75 1.0000000000000000
2001 76 1.0000000000000000
2001 77 1.0000000000000000
2001 78 1.0000000000000000
2001 79 1.0000000000000000
2001 80 1.0000000000000000
2001 81 1.0000000000000000
2001 82 1.0000000000000000
2001 83 1.0000000000000000
2001 84 1.0000000000000000
2001 85 1.0000000000000000
2001 86 1.0000000000000000
2001 87 1.0000000000000000
2001 88 1.0000000000000000
2001 89 1.0000000000000000
2001 90 1.0000000000000000
2001 91 1.0000000000000000
2001 92 1.0000000000000000
2001 93 1.0000000000000000
2001 94 1.0000000000000000
2001 95 1.0000000000000000
2001 96 1.0000000000000000
2001 97 1.0000000000000000
2001 98 1.0000000000000000
2001 99 1.0000000000000000
2001 100 1.0000000000000000
2001 101 1.0000000000000000
2001 102 1.0000000000000000
2001 103 1.0000000000000000
2001 104 1.0000000000000000
2001 105 1.0000000000000000
2001 106 1.0000000000000000
2001 107 1.0000000000000000
2001 108 1.0000000000000000
2001 109 1.0000000000000000
2001 110 1.0000000000000000
2001 111 1.0000000000000000
2001 112 1.0000000000000000
2001 113 1.0000000000000000
2001 114 1.0000000000000000
2001 115 1.0000000000000000
2001 116 1.0000000000000000
2001 117 1.0000000000000000
2001 118 1.0000000000000000
2001 119 1.0000000000000000
2001 120 1.0000000000000000
2001 121 1.0000000000000000
2001 122 1.0000000000000000
2001 123 1.0000000000000000
2001 124 1.0000000000000000
2001 125 1.0000000000000000
2001 126 1.0000000000000000
2001 127 1.0000000000000000
2001 128 1.0000000000000000
2001 129 1.0000000000000000
2001 130 1.0000000000000000
2001 131 1.0000000000000000
2001 132 1.0000000000000000
2001 133 1.0000000000000000
2001 134 1.0000000000000000
2001 135 1.0000000000000000
2001 136 1.0000000000000000
2001 137 1.0000000000000000
2001 138 1.0000000000000000
2001 139 1.0000000000000000
2001 140 1.0000000000000000
2001 141 1.0000000000000000
2001 142 1.0000000000000000
2001 143 1.0000000000000000
2001 144 1.0000000000000000
2001 145 1.0000000000000000
2001 146 1.0000000000000000
2001 147 1.0000000000000000
2001 148 1.0000000000000000
2001 149 1.0000000000000000
2001 150 1.0000000000000000
2001 151 1.0000000000000000
2001 152 1.0000000000000000
2001 153 1.0000000000000000
2001 154 1.0000000000000000
2001 155 1.0000000000000000
2001 156 1.0000000000000000
2001 157 1.0000000000000000
2001 158 1.0000000000000000
2001 159 1.0000000000000000
2001 160 1.0000000000000000
2001 161 1.0000000000000000
2001 162 1.0000000000000000
2001 163 1.0000000000000000
2001 164 1.0000000000000000
2001 165 1.0000000000000000
2001 166 1.0000000000000000
2001 167 1.0000000000000000
2001 168 1.0000000000000000
2001 169 1.0000000000000000
2001 170 1.0000000000000000
2001 171 1.0000000000000000
2001 172 1.0000000000000000
2001 173 1.0000000000000000
2001 174 1.0000000000000000
2001 175 1.0000000000000000
2001 176 1.0000000000000000
2001 177 1.0000000000000000
2001 178 1.0000000000000000
2001 179 1.0000000000000000
2001 180 1.0000000000000000
2001 181 1.0000000000000000
2001 182 1.0000000000000000
2001 183 1.0000000000000000
2001 184 1.0000000000000000
2001 185 1.0000000000000000
2001 186 1.0000000000000000
2001 187 1.0000000000000000
2001 188 1.0000000000000000
2001 189 1.0000000000000000
2001 190 1.0000000000000000
2001 191 1.0000000000000000
2001 192 1.0000000000000000
2001 193 1.0000000000000000
2001 194 1.0000000000000000
2001 195 1.0000000000000000
2001 196 1.0000000000000000
2001 197 1.0000000000000000
2001 198 1.0000000000000000
2001 199 1.0000000000000000
2001 200 1.0000000000000000
2001 201 1.0000000000000000
2001 202 1.0000000000000000
2001 203 1.0000000000000000
2001 204 1.0000000000000000
2001 205 1.0000000000000000
2001 206 1.0000000000000000
2001 207 1.0000000000000000
2001 208 1.0000000000000000
2001 209 1.0000000000000000
2001 210 1.0000000000000000
2001 211 1.0000000000000000
2001 212 1.0000000000000000
2001 213 1.0000000000000000
2001 214 1.0000000000000000
2001 215 1.0000000000000000
2001 216 1.0000000000000000
2001 217 1.0000000000000000
2001 218 1.0000000000000000
2001 219 1.0000000000000000
2001 220 1.0000000000000000
2001 221 1.0000000000000000
2001 222 1.0000000000000000
2001 223 1.0000000000000000
2001 224 1.0000000000000000
2001 225 1.0000000000000000
2001 226 1.0000000000000000
2001 227 1.0000000000000000
2001 228 1.0000000000000000
2001 229 1.0000000000000000
2001 230 1.0000000000000000
2001 231 1.0000000000000000
2001 232 1.0000000000000000
2001 233 1.0000000000000000
2001 234 1.0000000000000000
2001 235 1.0000000000000000
2001 236 1.0000000000000000
2001 237 1.0000000000000000
2001 238 1.0000000000000000
2001 239 1.0000000000000000
2001 240 1.0000000000000000
2001 241 1.0000000000000000
2001 242 1.0000000000000000
2001 243 1.0000000000000000
2001 244 1.0000000000000000
2001 245 1.0000000000000000
2001 246 1.0000000000000000
2001 247 1.0000000000000000
2001 248 1.0000000000000000
2001 249 1.0000000000000000
2001 250 1.0000000000000000
2001 251 1.0000000000000000
2001 252 1.0000000000000000
2001 253 1.0000000000000000
2001 254 1.0000000000000000
2001 255 1.0000000000000000
2001 256 1.0000000000000000
2001 257 1.0000000000000000
2001 258 1.0000000000000000
2001 259 1.0000000000000000
2001 260 1.0000000000000000
2001 261 1.0000000000000000
2001 262 1.0000000000000000
2001 263 1.0000000000000000
2001 264 1.0000000000000000
2001 265 1.0000000000000000
2001 266 1.0000000000000000
2001 267 1.0000000000000000
2001 268 1.0000000000000000
2001 269 1.0000000000000000
2001 270 1.0000000000000000
2001 271 1.0000000000000000
2001 272 1.0000000000000000
2001 273 1.0000000000000000
2001 274 1.0000000000000000
2001 275 1.0000000000000000
2001 276 1.0000000000000000
2001 277 1.0000000000000000
2001 278 1.0000000000000000
2001 279 1.0000000000000000
2001 280 1.0000000000000000
2001 281 1.0000000000000000
2001 282 1.0000000000000000
2001 283 1.0000000000000000
2001 284 1.0000000000000000
2001 285 1.0000000000000000
2001 286 1.0000000000000000
2001 287 1.0000000000000000
2001 288 1.0000000000000000
2001 289 1.0000000000000000
2001 290 1.0000000000000000
2001 291 1.0000000000000000
2001 292 1.0000000000000000
2001 293 1.0000000000000000
2001 294 1.0000000000000000
2001 295 1.0000000000000000
2001 296 1.0000000000000000
2001 297 1.0000000000000000
2001 298 1.0000000000000000
2001 299 1.0000000000000000
2001 300 1.0000000000000000
2001 301 1.0000000000000000
2001 302 1.0000000000000000
2001 303 1.0000000000000000
2001 304 1.0000000000000000
2001 305 1.0000000000000000
2001 306 1.0000000000000000
2001 307 1.0000000000000000
2001 308 1.0000000000000000
2001 309 1.0000000000000000
2001 310 1.0000000000000000
2001 311 1.0000000000000000
2001 312 1.0000000000000000
2001 313 1.0000000000000000
2001 314 1.0000000000000000
2001 315 1.0000000000000000
2001 316 1.0000000000000000
2001 317 1.0000000000000000
2001 318 1.0000000000000000
2001 319 1.0000000000000000
2001 320 1.0000000000000000
2001 321 1.0000000000000000
2001 322 1.0000000000000000
2001 323 1.0000000000000000
2001 324 1.0000000000000000
2001 325 1.0000000000000000
2001 326 1.0000000000000000
2001 327 1.0000000000000000
2001 328 1.0000000000000000
2001 329 1.0000000000000000
2001 330 1.0000000000000000
2001 331 1.0000000000000000
2001 332 1.0000000000000000
2001 333 1.0000000000000000
2001 334 1.0000000000000000
2001 335 1.0000000000000000
2001 336 1.0000000000000000
2001 337 1.0000000000000000
2001 338 1.0000000000000000
2001 339 1.0000000000000000
2001 340 1.0000000000000000
2001 341 1.0000000000000000
2001 342 1.0000000000000000
2001 343 1.0000000000000000
2001 344 1.0000000000000000
2001 345 1.0000000000000000
2001 346 1.0000000000000000
2001 347 1.0000000000000000
2001 348 1.0000000000000000
2001 349 1.0000000000000000
2001 350 1.0000000000000000
2001 351 1.0000000000000000
2001 352 1.0000000000000000
2001 353 1.0000000000000000
2001 354 1.0000000000000000
2001 355 1.0000000000000000
2001 356 1.0000000000000000
2001 357 1.0000000000000000
2001 358 1.0000000000000000
2001 359 1.0000000000000000
2001 360 1.0000000000000000
2001 361 1.0000000000000000
2001 362 1.0000000000000000
2001 363 1.0000000000000000
2001 364 1.0000000000000000
2001 365 1.0000000000000000
2001 366 1.0000000000000000
2001 367 1.0000000000000000
2001 368 1.0000000000000000
2001 369 1.0000000000000000
2001 370 1.0000000000000000
2001 371 1.0000000000000000
2001 372 1.0000000000000000
2001 373 1.0000000000000000
2001 374 1.0000000000000000
2001 375 1.0000000000000000
2001 376 1.0000000000000000
2001 377 1.0000000000000000
2001 378 1.0000000000000000
2001 379 1.0000000000000000
2001 380 1.0000000000000000
2001 381 1.0000000000000000
2001 382 1.0000000000000000
2001 383 1.0000000000000000
2001 384 1.0000000000000000
2001 385 1.0000000000000000
2001 386 1.0000000000000000
2001 387 1.0000000000000000
2001 388 1.0000000000000000
2001 389 1.0000000000000000
2001 390 1.0000000000000000
2001 391 1.0000000000000000
2001 392 1.0000000000000000
2001 393 1.0000000000000000
2001 394 1.0000000000000000
2001 395 1.0000000000000000
2001 396 1.0000000000000000
2001 397 1.0000000000000000
2001 398 1.0000000000000000
2001 399 1.0000000000000000
2001 400 1.0000000000000000
2001 401 1.0000000000000000
2001 402 1.0000000000000000
2001 403 1.0000000000000000
2001 404 1.0000000000000000
2001 405 1.0000000000000000
2001 406 1.0000000000000000
2001 407 1.0000000000000000
2001 408 1.0000000000000000
2001 409 1.0000000000000000
2001 410 1.0000000000000000
2001 411 1.0000000000000000
2001 412 1.0000000000000000
2001 413 1.0000000000000000
2001 414 1.0000000000000000
2001 415 1.0000000000000000
2001 416 1.0000000000000000
2001 417 1.0000000000000000
2001 418 1.0000000000000000
2001 419 1.0000000000000000
2001 420 1.0000000000000000
2001 421 1.0000000000000000
2001 422 1.0000000000000000
2001 423 1.0000000000000000
2001 424 1.0000000000000000
2001 425 1.0000000000000000
2001 426 1.0000000000000000
2001 427 1.0000000000000000
2001 428 1.0000000000000000
2001 429 1.0000000000000000
2001 430 1.0000000000000000
2001 431 1.0000000000000000
2001 432 1.0000000000000000
2001 433 1.0000000000000000
2001 434 1.0000000000000000
2001 435 1.0000000000000000
2001 436 1.0000000000000000
2001 437 1.0000000000000000
2001 438 1.0000000000000000
2001 439 1.0000000000000000
2001 440 1.0000000000000000
2001 441 1.0000000000000000
2001 442 1.0000000000000000
2001 443 1.0000000000000000
2001 444 1.0000000000000000
2001 445 1.0000000000000000
2001 446 1.0000000000000000
2001 447 1.0000000000000000
2001 448 1.0000000000000000
2001 449 1.0000000000000000
2001 450 1.0000000000000000
2001 451 1.0000000000000000
2001 452 1.0000000000000000
2001 453 1.0000000000000000
2001 454 1.0000000000000000
2001 455 1.0000000000000000
2001 456 1.0000000000000000
2001 457 1.0000000000000000
2001 458 1.0000000000000000
2001 459 1.0000000000000000
2001 460 1.0000000000000000
2001 461 1.0000000000000000
2001 462 1.0000000000000000
2001 463 1.0000000000000000
2001 464 1.0000000000000000
2001 465 1.0000000000000000
2001 466 1.0000000000000000
2001 467 1.0000000000000000
2001 468 1.0000000000000000
2001 469 1.0000000000000000
2001 470 1.0000000000000000
2001 471 1.0000000000000000
2001 472 1.0000000000000000
2001 473 1.0000000000000000
2001 474 1.0000000000000000
2001 475 1.0000000000000000
2001 476 1.0000000000000000
2001 477 1.0000000000000000
2001 478 1.0000000000000000
2001 479 1.0000000000000000
2001 480 1.0000000000000000
2001 481 1.0000000000000000
2001 482 1.0000000000000000
2001 483 1.0000000000000000
2001 484 1.0000000000000000
2001 485 1.0000000000000000
2001 486 1.0000000000000000
2001 487 1.0000000000000000
2001 488 1.0000000000000000
2001 489 1.0000000000000000
2001 490 1.0000000000000000
2001 491 1.0000000000000000
2001 492 1.0000000000000000
2001 493 1.0000000000000000
2001 494 1.0000000000000000
2001 495 1.0000000000000000
2001 496 1.0000000000000000
2001 497 1.0000000000000000
2001 498 1.0000000000000000
2001 499 1.0000000000000000
2001 500 1.0000000000000000
2001 501 1.0000000000000000
2001 502 1.0000000000000000
2001 503 1.0000000000000000
2001 504 1.0000000000000000
2001 505 1.0000000000000000
2001 506 1.0000000000000000
2001 507 1.0000000000000000
2001 508 1.0000000000000000
2001 509 1.0000000000000000
2001 510 1.0000000000000000
2001 511 1.0000000000000000
2001 512 1.0000000000000000
2001 513 1.0000000000000000
2001 514 1.0000000000000000
2001 515 1.0000000000000000
2001 516 1.0000000000000000
2001 517 1.0000000000000000
2001 518 1.0000000000000000
2001 519 1.0000000000000000
2001 520 1.0000000000000000
2001 521 1.0000000000000000
2001 522 1.0000000000000000
2001 523 1.0000000000000000
2001 524 1.0000000000000000
2001 525 1.0000000000000000
2001 526 1.0000000000000000
2001 527 1.0000000000000000
2001 528 1.0000000000000000
2001 529 1.0000000000000000
2001 530 1.0000000000000000
2001 531 1.0000000000000000
2001 532 1.0000000000000000
2001 533 1.0000000000000000
2001 534 1.0000000000000000
2001 535 1.0000000000000000
2001 536 1.0000000000000000
2001 537 1.0000000000000000
2001 538 1.0000000000000000
2001 539 1.0000000000000000
2001 540 1.0000000000000000
2001 541 1.0000000000000000
2001 542 1.0000000000000000
2001 543 1.0000000000000000
2001 544 1.0000000000000000
2001 545 1.0000000000000000
2001 546 1.0000000000000000
2001 547 1.0000000000000000
2001 548 1.0000000000000000
2001 549 1.0000000000000000
2001 550 1.0000000000000000
2001 551 1.0000000000000000
2001 552 1.0000000000000000
2001 553 1.0000000000000000
2001 554 1.0000000000000000
2001 555 1.0000000000000000
2001 556 1.0000000000000000
2001 557 1.0000000000000000
2001 558 1.0000000000000000
2001 559 1.0000000000000000
2001 560 1.0000000000000000
2001 561 1.0000000000000000
2001 562 1.0000000000000000
2001 563 1.0000000000000000
2001 564 1.0000000000000000
2001 565 1.0000000000000000
2001 566 1.0000000000000000
2001 567 1.0000000000000000
2001 568 1.0000000000000000
2001 569 1.0000000000000000
2001 570 1.0000000000000000
2001 571 1.0000000000000000
2001 572 1.0000000000000000
2001 573 1.0000000000000000
2001 574 1.0000000000000000
2001 575 1.0000000000000000
2001 576 1.0000000000000000
2001 577 1.0000000000000000
2001 578 1.0000000000000000
2001 579 1.0000000000000000
2001 580 1.0000000000000000
2001 581 1.0000000000000000
2001 582 1.0000000000000000
2001 583 1.0000000000000000
2001 584 1.0000000000000000
2001 585 1.0000000000000000
2001 586 1.0000000000000000
2001 587 1.0000000000000000
2001 588 1.0000000000000000
2001 589 1.0000000000000000
2001 590 1.0000000000000000
2001 591 1.0000000000000000
2001 592 1.0000000000000000
2001 593 1.0000000000000000
2001 594 1.0000000000000000
2001 595 1.0000000000000000
2001 596 1.0000000000000000
2001 597 1.0000000000000000
2001 598 1.0000000000000000
2001 599 1.0000000000000000
2001 600 1.0000000000000000
2001 601 1.0000000000000000
2001 602 1.0000000000000000
2001 603 1.0000000000000000
2001 604 1.0000000000000000
2001 605 1.0000000000000000
2001 606 1.0000000000000000
2001 607 1.0000000000000000
2001 608 1.0000000000000000
2001 609 1.0000000000000000
2001 610 1.0000000000000000
2001 611 1.0000000000000000
2001 612 1.0000000000000000
2001 613 1.0000000000000000
2001 614 1.0000000000000000
2001 615 1.0000000000000000
2001 616 1.0000000000000000
2001 617 1.0000000000000000
2001 618 1.0000000000000000
2001 619 1.0000000000000000
2001 620 1.0000000000000000
2001 621 1.0000000000000000
2001 622 1.0000000000000000
2001 623 1.0000000000000000
2001 624 1.0000000000000000
2001 625 1.0000000000000000
2001 626 1.0000000000000000
2001 627 1.0000000000000000
2001 628 1.0000000000000000
2001 629 1.0000000000000000
2001 630 1.0000000000000000
2001 631 1.0000000000000000
2001 632 1.0000000000000000
2001 633 1.0000000000000000
2001 634 1.0000000000000000
2001 635 1.0000000000000000
2001 636 1.0000000000000000
2001 637 1.0000000000000000
2001 638 1.0000000000000000
2001 639 1.0000000000000000
2001 640 1.0000000000000000
2001 641 1.0000000000000000
2001 642 1.0000000000000000
2001 643 1.0000000000000000
2001 644 1.0000000000000000
2001 645 1.0000000000000000
2001 646 1.0000000000000000
2001 647 1.0000000000000000
2001 648 1.0000000000000000
2001 649 1.0000000000000000
2001 650 1.0000000000000000
2001 651 1.0000000000000000
2001 652 1.0000000000000000
2001 653 1.0000000000000000
2001 654 1.0000000000000000
2001 655 1.0000000000000000
2001 656 1.0000000000000000
2001 657 1.0000000000000000
2001 658 1.0000000000000000
2001 659 1.0000000000000000
2001 660 1.0000000000000000
2001 661 1.0000000000000000
2001 662 1.0000000000000000
2001 663 1.0000000000000000
2001 664 1.0000000000000000
2001 665 1.0000000000000000
2001 666 1.0000000000000000
2001 667 1.0000000000000000
2001 668 1.0000000000000000
2001 669 1.0000000000000000
2001 670 1.0000000000000000
2001 671 1.0000000000000000
2001 672 1.0000000000000000
2001 673 1.0000000000000000
2001 674 1.0000000000000000
2001 675 1.0000000000000000
2001 676 1.0000000000000000
2001 677 1.0000000000000000
2001 678 1.0000000000000000
2001 679 1.0000000000000000
2001 680 1.0000000000000000
2001 681 1.0000000000000000
2001 682 1.0000000000000000
2001 683 1.0000000000000000
2001 684 1.0000000000000000
2001 685 1.0000000000000000
2001 686 1.0000000000000000
2001 687 1.0000000000000000
2001 688 1.0000000000000000
2001 689 1.0000000000000000
2001 690 1.0000000000000000
2001 691 1.0000000000000000
2001 692 1.0000000000000000
2001 693 1.0000000000000000
2001 694 1.0000000000000000
2001 695 1.0000000000000000
2001 696 1.0000000000000000
2001 697 1.0000000000000000
2001 698 1.0000000000000000
2001 699 1.0000000000000000
2001 700 1.0000000000000000
2001 701 1.0000000000000000
2001 702 1.0000000000000000
2001 703 1.0000000000000000
2001 704 1.0000000000000000
2001 705 1.0000000000000000
2001 706 1.0000000000000000
2001 707 1.0000000000000000
2001 708 1.0000000000000000
2001 709 1.0000000000000000
2001 710 1.0000000000000000
2001 711 1.0000000000000000
2001 712 1.0000000000000000
2001 713 1.0000000000000000
2001 714 1.0000000000000000
2001 715 1.0000000000000000
2001 716 1.0000000000000000
2001 717 1.0000000000000000
2001 718 1.0000000000000000
2001 719 1.0000000000000000
2001 720 1.0000000000000000
2001 721 1.0000000000000000
2001 722 1.0000000000000000
2001 723 1.0000000000000000
2001 724 1.0000000000000000
2001 725 1.0000000000000000
2001 726 1.0000000000000000
2001 727 1.0000000000000000
2001 728 1.0000000000000000
2001 729 1.0000000000000000
2001 730 1.0000000000000000
2001 731 1.0000000000000000
2001 732 1.0000000000000000
2001 733 1.0000000000000000
2001 734 1.0000000000000000
2001 735 1.0000000000000000
2001 736 1.0000000000000000
2001 737 1.0000000000000000
2001 738 1.0000000000000000
2001 739 1.0000000000000000
2001 740 1.0000000000000000
2001 741 1.0000000000000000
2001 742 1.0000000000000000
2001 743 1.0000000000000000
2001 744 1.0000000000000000
2001 745 1.0000000000000000
2001 746 1.0000000000000000
2001 747 1.0000000000000000
2001 748 1.0000000000000000
2001 749 1.0000000000000000
2001 750 1.0000000000000000
2001 751 1.0000000000000000
2001 752 1.0000000000000000
2001 753 1.0000000000000000
2001 754 1.0000000000000000
2001 755 1.0000000000000000
2001 756 1.0000000000000000
2001 757 1.0000000000000000
2001 758 1.0000000000000000
2001 759 1.0000000000000000
2001 760 1.0000000000000000
2001 761 1.0000000000000000
2001 762 1.0000000000000000
2001 763 1.0000000000000000
2001 764 1.0000000000000000
2001 765 1.0000000000000000
2001 766 1.0000000000000000
2001 767 1.0000000000000000
2001 768 1.0000000000000000
2001 769 1.0000000000000000
2001 770 1.0000000000000000
2001 771 1.0000000000000000
2001 772 1.0000000000000000
2001 773 1.0000000000000000
2001 774 1.0000000000000000
2001 775 1.0000000000000000
2001 776 1.0000000000000000
2001 777 1.0000000000000000
2001 778 1.0000000000000000
2001 779 1.0000000000000000
2001 780 1.0000000000000000
2001 781 1.0000000000000000
2001 782 1.0000000000000000
2001 783 1.0000000000000000
2001 784 1.0000000000000000
2001 785 1.0000000000000000
2001 786 1.0000000000000000
2001 787 1.0000000000000000
2001 788 1.0000000000000000
2001 789 1.0000000000000000
2001 790 1.0000000000000000
2001 791 1.0000000000000000
2001 792 1.0000000000000000
2001 793 1.0000000000000000
2001 794 1.0000000000000000
2001 795 1.0000000000000000
2001 796 1.0000000000000000
2001 797 1.0000000000000000
2001 798 1.0000000000000000
2001 799 1.0000000000000000
2001 800 1.0000000000000000
2001 801 1.0000000000000000
2001 802 1.0000000000000000
2001 803 1.0000000000000000
2001 804 1.0000000000000000
2001 805 1.0000000000000000
2001 806 1.0000000000000000
2001 807 1.0000000000000000
2001 808 1.0000000000000000
2001 809 1.0000000000000000
2001 810 1.0000000000000000
2001 811 1.0000000000000000
2001 812 1.0000000000000000
2001 813 1.0000000000000000
2001 814 1.0000000000000000
2001 815 1.0000000000000000
2001 816 1.0000000000000000
2001 817 1.0000000000000000
2001 818 1.0000000000000000
2001 819 1.0000000000000000
2001 820 1.0000000000000000
2001 821 1.0000000000000000
2001 822 1.0000000000000000
2001 823 1.0000000000000000
2001 824 1.0000000000000000
2001 825 1.0000000000000000
2001 826 1.0000000000000000
2001 827 1.0000000000000000
2001 828 1.0000000000000000
2001 829 1.0000000000000000
2001 830 1.0000000000000000
2001 831 1.0000000000000000
2001 832 1.0000000000000000
2001 833 1.0000000000000000
2001 834 1.0000000000000000
2001 835 1.0000000000000000
2001 836 1.0000000000000000
2001 837 1.0000000000000000
2001 838 1.0000000000000000
2001 839 1.0000000000000000
2001 840 1.0000000000000000
2001 841 1.0000000000000000
2001 842 1.0000000000000000
2001 843 1.0000000000000000
2001 844 1.0000000000000000
2001 845 1.0000000000000000
2001 846 1.0000000000000000
2001 847 1.0000000000000000
2001 848 1.0000000000000000
2001 849 1.0000000000000000
2001 850 1.0000000000000000
2001 851 1.0000000000000000
2001 852 1.0000000000000000
2001 853 1.0000000000000000
2001 854 1.0000000000000000
2001 855 1.0000000000000000
2001 856 1.0000000000000000
2001 857 1.0000000000000000
2001 858 1.0000000000000000
2001 859 1.0000000000000000
2001 860 1.0000000000000000
2001 861 1.0000000000000000
2001 862 1.0000000000000000
2001 863 1.0000000000000000
2001 864 1.0000000000000000
2001 865 1.0000000000000000
2001 866 1.0000000000000000
2001 867 1.0000000000000000
2001 868 1.0000000000000000
2001 869 1.0000000000000000
2001 870 1.0000000000000000
2001 871 1.0000000000000000
2001 872 1.0000000000000000
2001 873 1.0000000000000000
2001 874 1.0000000000000000
2001 875 1.0000000000000000
2001 876 1.0000000000000000
2001 877 1.0000000000000000
2001 878 1.0000000000000000
2001 879 1.0000000000000000
2001 880 1.0000000000000000
2001 881 1.0000000000000000
2001 882 1.0000000000000000
2001 883 1.0000000000000000
2001 884 1.0000000000000000
2001 885 1.0000000000000000
2001 886 1.0000000000000000
2001 887 1.0000000000000000
2001 888 1.0000000000000000
2001 889 1.0000000000000000
2001 890 1.0000000000000000
2001 891 1.0000000000000000
2001 892 1.0000000000000000
2001 893 1.0000000000000000
2001 894 1.0000000000000000
2001 895 1.0000000000000000
2001 896 1.0000000000000000
2001 897 1.0000000000000000
2001 898 1.0000000000000000
2001 899 1.0000000000000000
2001 900 1.0000000000000000
2001 901 1.0000000000000000
2001 902 1.0000000000000000
2001 903 1.0000000000000000
2001 904 1.0000000000000000
2001 905 1.0000000000000000
2001 906 1.0000000000000000
2001 907 1.0000000000000000
2001 908 1.0000000000000000
2001 909 1.0000000000000000
2001 910 1.0000000000000000
2001 911 1.0000000000000000
2001 912 1.0000000000000000
2001 913 1.0000000000000000
2001 914 1.0000000000000000
2001 915 1.0000000000000000
2001 916 1.0000000000000000
2001 917 1.0000000000000000
2001 918 1.0000000000000000
2001 919 1.0000000000000000
2001 920 1.0000000000000000
2001 921 1.0000000000000000
2001 922 1.0000000000000000
2001 923 1.0000000000000000
2001 924 1.0000000000000000
2001 925 1.0000000000000000
2001 926 1.0000000000000000
2001 927 1.0000000000000000
2001 928 1.0000000000000000
2001 929 1.0000000000000000
2001 930 1.0000000000000000
2001 931 1.0000000000000000
2001 932 1.0000000000000000
2001 933 1.0000000000000000
2001 934 1.0000000000000000
2001 935 1.0000000000000000
2001 936 1.0000000000000000
2001 937 1.0000000000000000
2001 938 1.0000000000000000
2001 939 1.0000000000000000
2001 940 1.0000000000000000
2001 941 1.0000000000000000
2001 942 1.0000000000000000
2001 943 1.0000000000000000
2001 944 1.0000000000000000
2001 945 1.0000000000000000
2001 946 1.0000000000000000
2001 947 1.0000000000000000
2001 948 1.0000000000000000
2001 949 1.0000000000000000
2001 950 1.0000000000000000
2001 951 1.0000000000000000
2001 952 1.0000000000000000
2001 953 1.0000000000000000
2001 954 1.0000000000000000
2001 955 1.0000000000000000
2001 956 1.0000000000000000
2001 957 1.0000000000000000
2001 958 1.0000000000000000
2001 959 1.0000000000000000
2001 960 1.0000000000000000
2001 961 1.0000000000000000
2001 962 1.0000000000000000
2001 963 1.0000000000000000
2001 964 1.0000000000000000
2001 965 1.0000000000000000
2001 966 1.0000000000000000
2001 967 1.0000000000000000
2001 968 1.0000000000000000
2001 969 1.0000000000000000
2001 970 1.0000000000000000
2001 971 1.0000000000000000
2001 972 1.0000000000000000
2001 973 1.0000000000000000
2001 974 1.0000000000000000
2001 975 1.0000000000000000
2001 976 1.0000000000000000
2001 977 1.0000000000000000
2001 978 1.0000000000000000
2001 979 1.0000000000000000
2001 980 1.0000000000000000
2001 981 1.0000000000000000
2001 982 1.0000000000000000
2001 983 1.0000000000000000
2001 984 1.0000000000000000
2001 985 1.0000000000000000
2001 986 1.0000000000000000
2001 987 1.0000000000000000
2001 988 1.0000000000000000
2001 989 1.0000000000000000
2001 990 1.0000000000000000
2001 991 1.0000000000000000
2001 992 1.0000000000000000
2001 993 1.0000000000000000
2001 994 1.0000000000000000
2001 995 1.0000000000000000
2001 996 1.0000000000000000
2001 997 1.0000000000000000
2001 998 1.0000000000000000
2001 999 1.0000000000000000
2001 1000 1.0000000000000000
2001 1001 1.0000000000000000
2001 1002 1.0000000000000000
2001 1003 1.0000000000000000
2001 1004 1.0000000000000000
2001 1005 1.0000000000000000
2001 1006 1.0000000000000000
2001 1007 1.0000000000000000
2001 1008 1.0000000000000000
2001 1009 1.0000000000000000
2001 1010 1.0000000000000000
2001 1011 1.0000000000000000
2001 1012 1.0000000000000000
2001 1013 1.0000000000000000
2001 1014 1.0000000000000000
2001 1015 1.0000000000000000
2001 1016 1.0000000000000000
2001 1017 1.0000000000000000
2001 1018 1.0000000000000000
2001 1019 1.0000000000000000
2001 1020 1.0000000000000000
2001 1021 1.0000000000000000
2001 1022 1.0000000000000000
2001 1023 1.0000000000000000
2001 1024 1.0000000000000000
2001 1025 1.0000000000000000
2001 1026 1.0000000000000000
2001 1027 1.0000000000000000
2001 1028 1.0000000000000000
2001 1029 1.0000000000000000
2001 1030 1.0000000000000000
2001 1031 1.0000000000000000
2001 1032 1.0000000000000000
2001 1033 1.0000000000000000
2001 1034 1.0000000000000000
2001 1035 1.0000000000000000
2001 1036 1.0000000000000000
2001 1037 1.0000000000000000
2001 1038 1.0000000000000000
2001 1039 1.0000000000000000
2001 1040 1.0000000000000000
2001 1041 1.0000000000000000
2001 1042 1.0000000000000000
2001 1043 1.0000000000000000
2001 1044 1.0000000000000000
2001 1045 1.0000000000000000
2001 1046 1.0000000000000000
2001 1047 1.0000000000000000
2001 1048 1.0000000000000000
2001 1049 1.0000000000000000
2001 1050 1.0000000000000000
2001 1051 1.0000000000000000
2001 1052 1.0000000000000000
2001 1053 1.0000000000000000
2001 1054 1.0000000000000000
2001 1055 1.0000000000000000
2001 1056 1.0000000000000000
2001 1057 1.0000000000000000
2001 1058 1.0000000000000000
2001 1059 1.0000000000000000
2001 1060 1.0000000000000000
2001 1061 1.0000000000000000
2001 1062 1.0000000000000000
2001 1063 1.0000000000000000
2001 1064 1.0000000000000000
2001 1065 1.0000000000000000
2001 1066 1.0000000000000000
2001 1067 1.0000000000000000
2001 1068 1.0000000000000000
2001 1069 1.0000000000000000
2001 1070 1.0000000000000000
2001 1071 1.0000000000000000
2001 1072 1.0000000000000000
2001 1073 1.0000000000000000
2001 1074 1.0000000000000000
2001 1075 1.0000000000000000
2001 1076 1.0000000000000000
2001 1077 1.0000000000000000
2001 1078 1.0000000000000000
2001 1079 1.0000000000000000
2001 1080 1.0000000000000000
2001 1081 1.0000000000000000
2001 1082 1.0000000000000000
2001 1083 1.0000000000000000
2001 1084 1.0000000000000000
2001 1085 1.0000000000000000
2001 1086 1.0000000000000000
2001 1087 1.0000000000000000
2001 1088 1.0000000000000000
2001 1089 1.0000000000000000
2001 1090 1.0000000000000000
2001 1091 1.0000000000000000
2001 1092 1.0000000000000000
2001 1093 1.0000000000000000
2001 1094 1.0000000000000000
2001 1095 1.0000000000000000
2001 1096 1.0000000000000000
2001 1097 1.0000000000000000
2001 1098 1.0000000000000000
2001 1099 1.0000000000000000
2001 1100 1.0000000000000000
2001 1101 1.0000000000000000
2001 1102 1.0000000000000000
2001 1103 1.0000000000000000
2001 1104 1.0000000000000000
2001 1105 1.0000000000000000
2001 1106 1.0000000000000000
2001 1107 1.0000000000000000
2001 1108 1.0000000000000000
2001 1109 1.0000000000000000
2001 1110 1.0000000000000000
2001 1111 1.0000000000000000
2001 1112 1.0000000000000000
2001 1113 1.0000000000000000
2001 1114 1.0000000000000000
2001 1115 1.0000000000000000
2001 1116 1.0000000000000000
2001 1117 1.0000000000000000
2001 1118 1.0000000000000000
2001 1119 1.0000000000000000
2001 1120 1.0000000000000000
2001 1121 1.0000000000000000
2001 1122 1.0000000000000000
2001 1123 1.0000000000000000
2001 1124 1.0000000000000000
2001 1125 1.0000000000000000
2001 1126 1.0000000000000000
2001 1127 1.0000000000000000
2001 1128 1.0000000000000000
2001 1129 1.0000000000000000
2001 1130 1.0000000000000000
2001 1131 1.0000000000000000
2001 1132 1.0000000000000000
2001 1133 1.0000000000000000
2001 1134 1.0000000000000000
2001 1135 1.0000000000000000
2001 1136 1.0000000000000000
2001 1137 1.0000000000000000
2001 1138 1.0000000000000000
2001 1139 1.0000000000000000
2001 1140 1.0000000000000000
2001 1141 1.0000000000000000
2001 1142 1.0000000000000000
2001 1143 1.0000000000000000
2001 1144 1.0000000000000000
2001 1145 1.0000000000000000
2001 1146 1.0000000000000000
2001 1147 1.0000000000000000
2001 1148 1.0000000000000000
2001 1149 1.0000000000000000
2001 1150 1.0000000000000000
2001 1151 1.0000000000000000
2001 1152 1.0000000000000000
2001 1153 1.0000000000000000
2001 1154 1.0000000000000000
2001 1155 1.0000000000000000
2001 1156 1.0000000000000000
2001 1157 1.0000000000000000
2001 1158 1.0000000000000000
2001 1159 1.0000000000000000
2001 1160 1.0000000000000000
2001 1161 1.0000000000000000
2001 1162 1.0000000000000000
2001 1163 1.0000000000000000
2001 1164 1.0000000000000000
2001 1165 1.0000000000000000
2001 1166 1.0000000000000000
2001 1167 1.0000000000000000
2001 1168 1.0000000000000000
2001 1169 1.0000000000000000
2001 1170 1.0000000000000000
2001 1171 1.0000000000000000
2001 1172 1.0000000000000000
2001 1173 1.0000000000000000
2001 1174 1.0000000000000000
2001 1175 1.0000000000000000
2001 1176 1.0000000000000000
2001 1177 1.0000000000000000
2001 1178 1.0000000000000000
2001 1179 1.0000000000000000
2001 1180 1.0000000000000000
2001 1181 1.0000000000000000
2001 1182 1.0000000000000000
2001 1183 1.0000000000000000
2001 1184 1.0000000000000000
2001 1185 1.0000000000000000
2001 1186 1.0000000000000000
2001 1187 1.0000000000000000
2001 1188 1.0000000000000000
2001 1189 1.0000000000000000
2001 1190 1.0000000000000000
2001 1191 1.0000000000000000
2001 1192 1.0000000000000000
2001 1193 1.0000000000000000
2001 1194 1.0000000000000000
2001 1195 1.0000000000000000
2001 1196 1.0000000000000000
2001 1197 1.0000000000000000
2001 1198 1.0000000000000000
2001 1199 1.0000000000000000
2001 1200 1.0000000000000000
2001 1201 1.0000000000000000
2001 1202 1.0000000000000000
2001 1203 1.0000000000000000
2001 1204 1.0000000000000000
2001 1205 1.0000000000000000
2001 1206 1.0000000000000000
2001 1207 1.0000000000000000
2001 1208 1.0000000000000000
2001 1209 1.0000000000000000
2001 1210 1.0000000000000000
2001 1211 1.0000000000000000
2001 1212 1.0000000000000000
2001 1213 1.0000000000000000
2001 1214 1.0000000000000000
2001 1215 1.0000000000000000
2001 1216 1.0000000000000000
2001 1217 1.0000000000000000
2001 1218 1.0000000000000000
2001 1219 1.0000000000000000
2001 1220 1.0000000000000000
2001 1221 1.0000000000000000
2001 1222 1.0000000000000000
2001 1223 1.0000000000000000
2001 1224 1.0000000000000000
2001 1225 1.0000000000000000
2001 1226 1.0000000000000000
2001 1227 1.0000000000000000
2001 1228 1.0000000000000000
2001 1229 1.0000000000000000
2001 1230 1.0000000000000000
2001 1231 1.0000000000000000
2001 1232 1.0000000000000000
2001 1233 1.0000000000000000
2001 1234 1.0000000000000000
2001 1235 1.0000000000000000
2001 1236 1.0000000000000000
2001 1237 1.0000000000000000
2001 1238 1.0000000000000000
2001 1239 1.0000000000000000
2001 1240 1.0000000000000000
2001 1241 1.0000000000000000
2001 1242 1.0000000000000000
2001 1243 1.0000000000000000
2001 1244 1.0000000000000000
2001 1245 1.0000000000000000
2001 1246 1.0000000000000000
2001 1247 1.0000000000000000
2001 1248 1.0000000000000000
2001 1249 1.0000000000000000
2001 1250 1.0000000000000000
2001 1251 1.0000000000000000
2001 1252 1.0000000000000000
2001 1253 1.0000000000000000
2001 1254 1.0000000000000000
2001 1255 1.0000000000000000
2001 1256 1.0000000000000000
2001 1257 1.0000000000000000
2001 1258 1.0000000000000000
2001 1259 1.0000000000000000
2001 1260 1.0000000000000000
2001 1261 1.0000000000000000
2001 1262 1.0000000000000000
2001 1263 1.0000000000000000
2001 1264 1.0000000000000000
2001 1265 1.0000000000000000
2001 1266 1.0000000000000000
2001 1267 1.0000000000000000
2001 1268 1.0000000000000000
2001 1269 1.0000000000000000
2001 1270 1.0000000000000000
2001 1271 1.0000000000000000
2001 1272 1.0000000000000000
2001 1273 1.0000000000000000
2001 1274 1.0000000000000000
2001 1275 1.0000000000000000
2001 1276 1.0000000000000000
2001 1277 1.0000000000000000
2001 1278 1.0000000000000000
2001 1279 1.0000000000000000
2001 1280 1.0000000000000000
2001 1281 1.0000000000000000
2001 1282 1.0000000000000000
2001 1283 1.0000000000000000
2001 1284 1.0000000000000000
2001 1285 1.0000000000000000
2001 1286 1.0000000000000000
2001 1287 1.0000000000000000
2001 1288 1.0000000000000000
2001 1289 1.0000000000000000
2001 1290 1.0000000000000000
2001 1291 1.0000000000000000
2001 1292 1.0000000000000000
2001 1293 1.0000000000000000
2001 1294 1.0000000000000000
2001 1295 1.0000000000000000
2001 1296 1.0000000000000000
2001 1297 1.0000000000000000
2001 1298 1.0000000000000000
2001 1299 1.0000000000000000
2001 1300 1.0000000000000000
2001 1301 1.0000000000000000
2001 1302 1.0000000000000000
2001 1303 1.0000000000000000
2001 1304 1.0000000000000000
2001 1305 1.0000000000000000
2001 1306 1.0000000000000000
2001 1307 1.0000000000000000
2001 1308 1.0000000000000000
2001 1309 1.0000000000000000
2001 1310 1.0000000000000000
2001 1311 1.0000000000000000
2001 1312 1.0000000000000000
2001 1313 1.0000000000000000
2001 1314 1.0000000000000000
2001 1315 1.0000000000000000
2001 1316 1.0000000000000000
2001 1317 1.0000000000000000
2001 1318 1.0000000000000000
2001 1319 1.0000000000000000
2001 1320 1.0000000000000000
2001 1321 1.0000000000000000
2001 1322 1.0000000000000000
2001 1323 1.0000000000000000
2001 1324 1.0000000000000000
2001 1325 1.0000000000000000
2001 1326 1.0000000000000000
2001 1327 1.0000000000000000
2001 1328 1.0000000000000000
2001 1329 1.0000000000000000
2001 1330 1.0000000000000000
2001 1331 1.0000000000000000
2001 1332 1.0000000000000000
2001 1333 1.0000000000000000
2001 1334 1.0000000000000000
2001 1335 1.0000000000000000
2001 1336 1.0000000000000000
2001 1337 1.0000000000000000
2001 1338 1.0000000000000000
2001 1339 1.0000000000000000
2001 1340 1.0000000000000000
2001 1341 1.0000000000000000
2001 1342 1.0000000000000000
2001 1343 1.0000000000000000
2001 1344 1.0000000000000000
2001 1345 1.0000000000000000
2001 1346 1.0000000000000000
2001 1347 1.0000000000000000
2001 1348 1.0000000000000000
2001 1349 1.0000000000000000
2001 1350 1.0000000000000000
2001 1351 1.0000000000000000
2001 1352 1.0000000000000000
2001 1353 1.0000000000000000
2001 1354 1.0000000000000000
2001 1355 1.0000000000000000
2001 1356 1.0000000000000000
2001 1357 1.0000000000000000
2001 1358 1.0000000000000000
2001 1359 1.0000000000000000
2001 1360 1.0000000000000000
2001 1361 1.0000000000000000
2001 1362 1.0000000000000000
2001 1363 1.0000000000000000
2001 1364 1.0000000000000000
2001 1365 1.0000000000000000
2001 1366 1.0000000000000000
2001 1367 1.0000000000000000
2001 1368 1.0000000000000000
2001 1369 1.0000000000000000
2001 1370 1.0000000000000000
2001 1371 1.0000000000000000
2001 1372 1.0000000000000000
2001 1373 1.0000000000000000
2001 1374 1.0000000000000000
2001 1375 1.0000000000000000
2001 1376 1.0000000000000000
2001 1377 1.0000000000000000
2001 1378 1.0000000000000000
2001 1379 1.0000000000000000
2001 1380 1.0000000000000000
2001 1381 1.0000000000000000
2001 1382 1.0000000000000000
2001 1383 1.0000000000000000
2001 1384 1.0000000000000000
2001 1385 1.0000000000000000
2001 1386 1.0000000000000000
2001 1387 1.0000000000000000
2001 1388 1.0000000000000000
2001 1389 1.0000000000000000
2001 1390 1.0000000000000000
2001 1391 1.0000000000000000
2001 1392 1.0000000000000000
2001 1393 1.0000000000000000
2001 1394 1.0000000000000000
2001 1395 1.0000000000000000
2001 1396 1.0000000000000000
2001 1397 1.0000000000000000
2001 1398 1.0000000000000000
2001 1399 1.0000000000000000
2001 1400 1.0000000000000000
2001 1401 1.0000000000000000
2001 1402 1.0000000000000000
2001 1403 1.0000000000000000
2001 1404 1.0000000000000000
2001 1405 1.0000000000000000
2001 1406 1.0000000000000000
2001 1407 1.0000000000000000
2001 1408 1.0000000000000000
2001 1409 1.0000000000000000
2001 1410 1.0000000000000000
2001 1411 1.0000000000000000
2001 1412 1.0000000000000000
2001 1413 1.0000000000000000
2001 1414 1.0000000000000000
2001 1415 1.0000000000000000
2001 1416 1.0000000000000000
2001 1417 1.0000000000000000
2001 1418 1.0000000000000000
2001 1419 1.0000000000000000
2001 1420 1.0000000000000000
2001 1421 1.0000000000000000
2001 1422 1.0000000000000000
2001 1423 1.0000000000000000
2001 1424 1.0000000000000000
2001 1425 1.0000000000000000
2001 1426 1.0000000000000000
2001 1427 1.0000000000000000
2001 1428 1.0000000000000000
2001 1429 1.0000000000000000
2001 1430 1.0000000000000000
2001 1431 1.0000000000000000
2001 1432 1.0000000000000000
2001 1433 1.0000000000000000
2001 1434 1.0000000000000000
2001 1435 1.0000000000000000
2001 1436 1.0000000000000000
2001 1437 1.0000000000000000
2001 1438 1.0000000000000000
2001 1439 1.0000000000000000
2001 1440 1.0000000000000000
2001 1441 1.0000000000000000
2001 1442 1.0000000000000000
2001 1443 1.0000000000000000
2001 1444 1.0000000000000000
2001 1445 1.0000000000000000
2001 1446 1.0000000000000000
2001 1447 1.0000000000000000
2001 1448 1.0000000000000000
2001 1449 1.0000000000000000
2001 1450 1.0000000000000000
2001 1451 1.0000000000000000
2001 1452 1.0000000000000000
2001 1453 1.0000000000000000
2001 1454 1.0000000000000000
2001 1455 1.0000000000000000
2001 1456 1.0000000000000000
2001 1457 1.0000000000000000
2001 1458 1.0000000000000000
2001 1459 1.0000000000000000
2001 1460 1.0000000000000000
2001 1461 1.0000000000000000
2001 1462 1.0000000000000000
2001 1463 1.0000000000000000
2001 1464 1.0000000000000000
2001 1465 1.0000000000000000
2001 1466 1.0000000000000000
2001 1467 1.0000000000000000
2001 1468 1.0000000000000000
2001 1469 1.0000000000000000
2001 1470 1.0000000000000000
2001 1471 1.0000000000000000
2001 1472 1.0000000000000000
2001 1473 1.0000000000000000
2001 1474 1.0000000000000000
2001 1475 1.0000000000000000
2001 1476 1.0000000000000000
2001 1477 1.0000000000000000
2001 1478 1.0000000000000000
2001 1479 1.0000000000000000
2001 1480 1.0000000000000000
2001 1481 1.0000000000000000
2001 1482 1.0000000000000000
2001 1483 1.0000000000000000
2001 1484 1.0000000000000000
2001 1485 1.0000000000000000
2001 1486 1.0000000000000000
2001 1487 1.0000000000000000
2001 1488 1.0000000000000000
2001 1489 1.0000000000000000
2001 1490 1.0000000000000000
2001 1491 1.0000000000000000
2001 1492 1.0000000000000000
2001 1493 1.0000000000000000
2001 1494 1.0000000000000000
2001 1495 1.0000000000000000
2001 1496 1.0000000000000000
2001 1497 1.0000000000000000
2001 1498 1.0000000000000000
2001 1499 1.0000000000000000
2001 1500 1.0000000000000000
2001 1501 1.0000000000000000
2001 1502 1.0000000000000000
2001 1503 1.0000000000000000
2001 1504 1.0000000000000000
2001 1505 1.0000000000000000
2001 1506 1.0000000000000000
2001 1507 1.0000000000000000
2001 1508 1.0000000000000000
2001 1509 1.0000000000000000
2001 1510 1.0000000000000000
2001 1511 1.0000000000000000
2001 1512 1.0000000000000000
2001 1513 1.0000000000000000
2001 1514 1.0000000000000000
2001 1515 1.0000000000000000
2001 1516 1.0000000000000000
2001 1517 1.0000000000000000
2001 1518 1.0000000000000000
2001 1519 1.0000000000000000
2001 1520 1.0000000000000000
2001 1521 1.0000000000000000
2001 1522 1.0000000000000000
2001 1523 1.0000000000000000
2001 1524 1.0000000000000000
2001 1525 1.0000000000000000
2001 1526 1.0000000000000000
2001 1527 1.0000000000000000
2001 1528 1.0000000000000000
2001 1529 1.0000000000000000
2001 1530 1.0000000000000000
2001 1531 1.0000000000000000
2001 1532 1.0000000000000000
2001 1533 1.0000000000000000
2001 1534 1.0000000000000000
2001 1535 1.0000000000000000
2001 1536 1.0000000000000000
2001 1537 1.0000000000000000
2001 1538 1.0000000000000000
2001 1539 1.0000000000000000
2001 1540 1.0000000000000000
2001 1541 1.0000000000000000
2001 1542 1.0000000000000000
2001 1543 1.0000000000000000
2001 1544 1.0000000000000000
2001 1545 1.0000000000000000
2001 1546 1.0000000000000000
2001 1547 1.0000000000000000
2001 1548 1.0000000000000000
2001 1549 1.0000000000000000
2001 1550 1.0000000000000000
2001 1551 1.0000000000000000
2001 1552 1.0000000000000000
2001 1553 1.0000000000000000
2001 1554 1.0000000000000000
2001 1555 1.0000000000000000
2001 1556 1.0000000000000000
2001 1557 1.0000000000000000
2001 1558 1.0000000000000000
2001 1559 1.0000000000000000
2001 1560 1.0000000000000000
2001 1561 1.0000000000000000
2001 1562 1.0000000000000000
2001 1563 1.0000000000000000
2001 1564 1.0000000000000000
2001 1565 1.0000000000000000
2001 1566 1.0000000000000000
2001 1567 1.0000000000000000
2001 1568 1.0000000000000000
2001 1569 1.0000000000000000
2001 1570 1.0000000000000000
2001 1571 1.0000000000000000
2001 1572 1.0000000000000000
2001 1573 1.0000000000000000
2001 1574 1.0000000000000000
2001 1575 1.0000000000000000
2001 1576 1.0000000000000000
2001 1577 1.0000000000000000
2001 1578 1.0000000000000000
2001 1579 1.0000000000000000
2001 1580 1.0000000000000000
2001 1581 1.0000000000000000
2001 1582 1.0000000000000000
2001 1583 1.0000000000000000
2001 1584 1.0000000000000000
2001 1585 1.0000000000000000
2001 1586 1.0000000000000000
2001 1587 1.0000000000000000
2001 1588 1.0000000000000000
2001 1589 1.0000000000000000
2001 1590 1.0000000000000000
2001 1591 1.0000000000000000
2001 1592 1.0000000000000000
2001 1593 1.0000000000000000
2001 1594 1.0000000000000000
2001 1595 1.0000000000000000
2001 1596 1.0000000000000000
2001 1597 1.0000000000000000
2001 1598 1.0000000000000000
2001 1599 1.0000000000000000
2001 1600 1.0000000000000000
2001 1601 1.0000000000000000
2001 1602 1.0000000000000000
2001 1603 1.0000000000000000
2001 1604 1.0000000000000000
2001 1605 1.0000000000000000
2001 1606 1.0000000000000000
2001 1607 1.0000000000000000
2001 1608 1.0000000000000000
2001 1609 1.0000000000000000
2001 1610 1.0000000000000000
2001 1611 1.0000000000000000
2001 1612 1.0000000000000000
2001 1613 1.0000000000000000
2001 1614 1.0000000000000000
2001 1615 1.0000000000000000
2001 1616 1.0000000000000000
2001 1617 1.0000000000000000
2001 1618 1.0000000000000000
2001 1619 1.0000000000000000
2001 1620 1.0000000000000000
2001 1621 1.0000000000000000
2001 1622 1.0000000000000000
2001 1623 1.0000000000000000
2001 1624 1.0000000000000000
2001 1625 1.0000000000000000
2001 1626 1.0000000000000000
2001 1627 1.0000000000000000
2001 1628 1.0000000000000000
2001 1629 1.0000000000000000
2001 1630 1.0000000000000000
2001 1631 1.0000000000000000
2001 1632 1.0000000000000000
2001 1633 1.0000000000000000
2001 1634 1.0000000000000000
2001 1635 1.0000000000000000
2001 1636 1.0000000000000000
2001 1637 1.0000000000000000
2001 1638 1.0000000000000000
2001 1639 1.0000000000000000
2001 1640 1.0000000000000000
2001 1641 1.0000000000000000
2001 1642 1.0000000000000000
2001 1643 1.0000000000000000
2001 1644 1.0000000000000000
2001 1645 1.0000000000000000
2001 1646 1.0000000000000000
2001 1647 1.0000000000000000
2001 1648 1.0000000000000000
2001 1649 1.0000000000000000
2001 1650 1.0000000000000000
2001 1651 1.0000000000000000
2001 1652 1.0000000000000000
2001 1653 1.0000000000000000
2001 1654 1.0000000000000000
2001 1655 1.0000000000000000
2001 1656 1.0000000000000000
2001 1657 1.0000000000000000
2001 1658 1.0000000000000000
2001 1659 1.0000000000000000
2001 1660 1.0000000000000000
2001 1661 1.0000000000000000
2001 1662 1.0000000000000000
2001 1663 1.0000000000000000
2001 1664 1.0000000000000000
2001 1665 1.0000000000000000
2001 1666 1.0000000000000000
2001 1667 1.0000000000000000
2001 1668 1.0000000000000000
2001 1669 1.0000000000000000
2001 1670 1.0000000000000000
2001 1671 1.0000000000000000
2001 1672 1.0000000000000000
2001 1673 1.0000000000000000
2001 1674 1.0000000000000000
2001 1675 1.0000000000000000
2001 1676 1.0000000000000000
2001 1677 1.0000000000000000
2001 1678 1.0000000000000000
2001 1679 1.0000000000000000
2001 1680 1.0000000000000000
2001 1681 1.0000000000000000
2001 1682 1.0000000000000000
2001 1683 1.0000000000000000
2001 1684 1.0000000000000000
2001 1685 1.0000000000000000
2001 1686 1.0000000000000000
2001 1687 1.0000000000000000
2001 1688 1.0000000000000000
2001 1689 1.0000000000000000
2001 1690 1.0000000000000000
2001 1691 1.0000000000000000
2001 1692 1.0000000000000000
2001 1693 1.0000000000000000
2001 1694 1.0000000000000000
2001 1695 1.0000000000000000
2001 1696 1.0000000000000000
2001 1697 1.0000000000000000
2001 1698 1.0000000000000000
2001 1699 1.0000000000000000
2001 1700 1.0000000000000000
2001 1701 1.0000000000000000
2001 1702 1.0000000000000000
2001 1703 1.0000000000000000
2001 1704 1.0000000000000000
2001 1705 1.0000000000000000
2001 1706 1.0000000000000000
2001 1707 1.0000000000000000
2001 1708 1.0000000000000000
2001 1709 1.0000000000000000
2001 1710 1.0000000000000000
2001 1711 1.0000000000000000
2001 1712 1.0000000000000000
2001 1713 1.0000000000000000
2001 1714 1.0000000000000000
2001 1715 1.0000000000000000
2001 1716 1.0000000000000000
2001 1717 1.0000000000000000
2001 1718 1.0000000000000000
2001 1719 1.0000000000000000
2001 1720 1.0000000000000000
2001 1721 1.0000000000000000
2001 1722 1.0000000000000000
2001 1723 1.0000000000000000
2001 1724 1.0000000000000000
2001 1725 1.0000000000000000
2001 1726 1.0000000000000000
2001 1727 1.0000000000000000
2001 1728 1.0000000000000000
2001 1729 1.0000000000000000
2001 1730 1.0000000000000000
2001 1731 1.0000000000000000
2001 1732 1.0000000000000000
2001 1733 1.0000000000000000
2001 1734 1.0000000000000000
2001 1735 1.0000000000000000
2001 1736 1.0000000000000000
2001 1737 1.0000000000000000
2001 1738 1.0000000000000000
2001 1739 1.0000000000000000
2001 1740 1.0000000000000000
2001 1741 1.0000000000000000
2001 1742 1.0000000000000000
2001 1743 1.0000000000000000
2001 1744 1.0000000000000000
2001 1745 1.0000000000000000
2001 1746 1.0000000000000000
2001 1747 1.0000000000000000
2001 1748 1.0000000000000000
2001 1749 1.0000000000000000
2001 1750 1.0000000000000000
2001 1751 1.0000000000000000
2001 1752 1.0000000000000000
2001 1753 1.0000000000000000
2001 1754 1.0000000000000000
2001 1755 1.0000000000000000
2001 1756 1.0000000000000000
2001 1757 1.0000000000000000
2001 1758 1.0000000000000000
2001 1759 1.0000000000000000
2001 1760 1.0000000000000000
2001 1761 1.0000000000000000
2001 1762 1.0000000000000000
2001 1763 1.0000000000000000
2001 1764 1.0000000000000000
2001 1765 1.0000000000000000
2001 1766 1.0000000000000000
2001 1767 1.0000000000000000
2001 1768 1.0000000000000000
2001 1769 1.0000000000000000
2001 1770 1.0000000000000000
2001 1771 1.0000000000000000
2001 1772 1.0000000000000000
2001 1773 1.0000000000000000
2001 1774 1.0000000000000000
2001 1775 1.0000000000000000
2001 1776 1.0000000000000000
2001 1777 1.0000000000000000
2001 1778 1.0000000000000000
2001 1779 1.0000000000000000
2001 1780 1.0000000000000000
2001 1781 1.0000000000000000
2001 1782 1.0000000000000000
2001 1783 1.0000000000000000
2001 1784 1.0000000000000000
2001 1785 1.0000000000000000
2001 1786 1.0000000000000000
2001 1787 1.0000000000000000
2001 1788 1.0000000000000000
2001 1789 1.0000000000000000
2001 1790 1.0000000000000000
2001 1791 1.0000000000000000
2001 1792 1.0000000000000000
2001 1793 1.0000000000000000
2001 1794 1.0000000000000000
2001 1795 1.0000000000000000
2001 1796 1.0000000000000000
2001 1797 1.0000000000000000
2001 1798 1.0000000000000000
2001 1799 1.0000000000000000
2001 1800 1.0000000000000000
2001 1801 1.0000000000000000
2001 1802 1.0000000000000000
2001 1803 1.0000000000000000
2001 1804 1.0000000000000000
2001 1805 1.0000000000000000
2001 1806 1.0000000000000000
2001 1807 1.0000000000000000
2001 1808 1.0000000000000000
2001 1809 1.0000000000000000
2001 1810 1.0000000000000000
2001 1811 1.0000000000000000
2001 1812 1.0000000000000000
2001 1813 1.0000000000000000
2001 1814 1.0000000000000000
2001 1815 1.0000000000000000
2001 1816 1.0000000000000000
2001 1817 1.0000000000000000
2001 1818 1.0000000000000000
2001 1819 1.0000000000000000
2001 1820 1.0000000000000000
2001 1821 1.0000000000000000
2001 1822 1.0000000000000000
2001 1823 1.0000000000000000
2001 1824 1.0000000000000000
2001 1825 1.0000000000000000
2001 1826 1.0000000000000000
2001 1827 1.0000000000000000
2001 1828 1.0000000000000000
2001 1829 1.0000000000000000
2001 1830 1.0000000000000000
2001 1831 1.0000000000000000
2001 1832 1.0000000000000000
2001 1833 1.0000000000000000
2001 1834 1.0000000000000000
2001 1835 1.0000000000000000
2001 1836 1.0000000000000000
2001 1837 1.0000000000000000
2001 1838 1.0000000000000000
2001 1839 1.0000000000000000
2001 1840 1.0000000000000000
2001 1841 1.0000000000000000
2001 1842 1.0000000000000000
2001 1843 1.0000000000000000
2001 1844 1.0000000000000000
2001 1845 1.0000000000000000
2001 1846 1.0000000000000000
2001 1847 1.0000000000000000
2001 1848 1.0000000000000000
2001 1849 1.0000000000000000
2001 1850 1.0000000000000000
2001 1851 1.0000000000000000
2001 1852 1.0000000000000000
2001 1853 1.0000000000000000
2001 1854 1.0000000000000000
2001 1855 1.0000000000000000
2001 1856 1.0000000000000000
2001 1857 1.0000000000000000
2001 1858 1.0000000000000000
2001 1859 1.0000000000000000
2001 1860 1.0000000000000000
2001 1861 1.0000000000000000
2001 1862 1.0000000000000000
2001 1863 1.0000000000000000
2001 1864 1.0000000000000000
2001 1865 1.0000000000000000
2001 1866 1.0000000000000000
2001 1867 1.0000000000000000
2001 1868 1.0000000000000000
2001 1869 1.0000000000000000
2001 1870 1.0000000000000000
2001 1871 1.0000000000000000
2001 1872 1.0000000000000000
2001 1873 1.0000000000000000
2001 1874 1.0000000000000000
2001 1875 1.0000000000000000
2001 1876 1.0000000000000000
2001 1877 1.0000000000000000
2001 1878 1.0000000000000000
2001 1879 1.0000000000000000
2001 1880 1.0000000000000000
2001 1881 1.0000000000000000
2001 1882 1.0000000000000000
2001 1883 1.0000000000000000
2001 1884 1.0000000000000000
2001 1885 1.0000000000000000
2001 1886 1.0000000000000000
2001 1887 1.0000000000000000
2001 1888 1.0000000000000000
2001 1889 1.0000000000000000
2001 1890 1.0000000000000000
2001 1891 1.0000000000000000
2001 1892 1.0000000000000000
2001 1893 1.0000000000000000
2001 1894 1.0000000000000000
2001 1895 1.0000000000000000
2001 1896 1.0000000000000000
2001 1897 1.0000000000000000
2001 1898 1.0000000000000000
2001 1899 1.0000000000000000
2001 1900 1.0000000000000000
2001 1901 1.0000000000000000
2001 1902 1.0000000000000000
2001 1903 1.0000000000000000
2001 1904 1.0000000000000000
2001 1905 1.0000000000000000
2001 1906 1.0000000000000000
2001 1907 1.0000000000000000
2001 1908 1.0000000000000000
2001 1909 1.0000000000000000
2001 1910 1.0000000000000000
2001 1911 1.0000000000000000
2001 1912 1.0000000000000000
2001 1913 1.0000000000000000
2001 1914 1.0000000000000000
2001 1915 1.0000000000000000
2001 1916 1.0000000000000000
2001 1917 1.0000000000000000
2001 1918 1.0000000000000000
2001 1919 1.0000000000000000
2001 1920 1.0000000000000000
2001 1921 1.0000000000000000
2001 1922 1.0000000000000000
2001 1923 1.0000000000000000
2001 1924 1.0000000000000000
2001 1925 1.0000000000000000
2001 1926 1.0000000000000000
2001 1927 1.0000000000000000
2001 1928 1.0000000000000000
2001 1929 1.0000000000000000
2001 1930 1.0000000000000000
2001 1931 1.0000000000000000
2001 1932 1.0000000000000000
2001 1933 1.0000000000000000
2001 1934 1.0000000000000000
2001 1935 1.0000000000000000
2001 1936 1.0000000000000000
2001 1937 1.0000000000000000
2001 1938 1.0000000000000000
2001 1939 1.0000000000000000
2001 1940 1.0000000000000000
2001 1941 1.0000000000000000
2001 1942 1.0000000000000000
2001 1943 1.0000000000000000
2001 1944 1.0000000000000000
2001 1945 1.0000000000000000
2001 1946 1.0000000000000000
2001 1947 1.0000000000000000
2001 1948 1.0000000000000000
2001 1949 1.0000000000000000
2001 1950 1.0000000000000000
2001 1951 1.0000000000000000
2001 1952 1.0000000000000000
2001 1953 1.0000000000000000
2001 1954 1.0000000000000000
2001 1955 1.0000000000000000
2001 1956 1.0000000000000000
2001 1957 1.0000000000000000
2001 1958 1.0000000000000000
2001 1959 1.0000000000000000
2001 1960 1.0000000000000000
2001 1961 1.0000000000000000
2001 1962 1.0000000000000000
2001 1963 1.0000000000000000
2001 1964 1.0000000000000000
2001 1965 1.0000000000000000
2001 1966 1.0000000000000000
2001 1967 1.0000000000000000
2001 1968 1.0000000000000000
2001 1969 1.0000000000000000
2001 1970 1.0000000000000000
2001 1971 1.0000000000000000
2001 1972 1.0000000000000000
2001 1973 1.0000000000000000
2001 1974 1.0000000000000000
2001 1975 1.0000000000000000
2001 1976 1.0000000000000000
2001 1977 1.0000000000000000
2001 1978 1.0000000000000000
2001 1979 1.0000000000000000
2001 1980 1.0000000000000000
2001 1981 1.0000000000000000
2001 1982 1.0000000000000000
2001 1983 1.0000000000000000
2001 1984 1.0000000000000000
2001 1985 1.0000000000000000
2001 1986 1.0000000000000000
2001 1987 1.0000000000000000
2001 1988 1.0000000000000000
2001 1989 1.0000000000000000
2001 1990 1.0000000000000000
2001 1991 1.0000000000000000
2001 1992 1.0000000000000000
2001 1993 1.0000000000000000
2001 1994 1.0000000000000000
2001 1995 1.0000000000000000
2001 1996 1.0000000000000000
2001 1997 1.0000000000000000
2001 1998 1.0000000000000000
2001 1999 1.0000000000000000
2001 2000 1.0000000000000000
2001 4001 1.0000000000000000
