301 601 901
1 1 1.0000000000000000
1 301 1.0000000000000000
2 2 1.0000000000000000
2 302 1.0000000000000000
3 3 1.0000000000000000
3 303 1.0000000000000000
4 4 1.0000000000000000
4 304 1.0000000000000000
5 5 1.0000000000000000
5 305 1.0000000000000000
6 6 1.0000000000000000
6 306 1.0000000000000000
7 7 1.0000000000000000
7 307 1.0000000000000000
8 8 1.0000000000000000
8 308 1.0000000000000000
9 9 1.0000000000000000
9 309 1.0000000000000000
10 10 1.0000000000000000
10 310 1.0000000000000000
11 11 1.0000000000000000
11 311 1.0000000000000000
12 12 1.0000000000000000
12 312 1.0000000000000000
13 13 1.0000000000000000
13 313 1.0000000000000000
14 14 1.0000000000000000
14 314 1.0000000000000000
15 15 1.0000000000000000
15 315 1.0000000000000000
16 16 1.0000000000000000
16 316 1.0000000000000000
17 17 1.0000000000000000
17 317 1.0000000000000000
18 18 1.0000000000000000
18 318 1.0000000000000000
19 19 1.0000000000000000
19 319 1.0000000000000000
20 20 1.0000000000000000
20 320 1.0000000000000000
21 21 1.0000000000000000
21 321 1.0000000000000000
22 22 1.0000000000000000
22 322 1.0000000000000000
23 23 1.0000000000000000
23 323 1.0000000000000000
24 24 1.0000000000000000
24 324 1.0000000000000000
25 25 1.0000000000000000
25 325 1.0000000000000000
26 26 1.0000000000000000
26 326 1.0000000000000000
27 27 1.0000000000000000
27 327 1.0000000000000000
28 28 1.0000000000000000
28 328 1.0000000000000000
29 29 1.0000000000000000
29 329 1.0000000000000000
30 30 1.0000000000000000
30 330 1.0000000000000000
31 31 1.0000000000000000
31 331 1.0000000000000000
32 32 1.0000000000000000
32 332 1.0000000000000000
33 33 1.0000000000000000
33 333 1.0000000000000000
34 34 1.0000000000000000
34 334 1.0000000000000000
35 35 1.0000000000000000
35 335 1.0000000000000000
36 36 1.0000000000000000
36 336 1.0000000000000000
37 37 1.0000000000000000
37 337 1.0000000000000000
38 38 1.0000000000000000
38 338 1.0000000000000000
39 39 1.0000000000000000
39 339 1.0000000000000000
40 40 1.0000000000000000
40 340 1.0000000000000000
41 41 1.0000000000000000
41 341 1.0000000000000000
42 42 1.0000000000000000
42 342 1.0000000000000000
43 43 1.0000000000000000
43 343 1.0000000000000000
44 44 1.0000000000000000
44 344 1.0000000000000000
45 45 1.0000000000000000
45 345 1.0000000000000000
46 46 1.0000000000000000
46 346 1.0000000000000000
47 47 1.0000000000000000
47 347 1.0000000000000000
48 48 1.0000000000000000
48 348 1.0000000000000000
49 49 1.0000000000000000
49 349 1.0000000000000000
50 50 1.0000000000000000
50 350 1.0000000000000000
51 51 1.0000000000000000
51 351 1.0000000000000000
52 52 1.0000000000000000
52 352 1.0000000000000000
53 53 1.0000000000000000
53 353 1.0000000000000000
54 54 1.0000000000000000
54 354 1.0000000000000000
55 55 1.0000000000000000
55 355 1.0000000000000000
56 56 1.0000000000000000
56 356 1.0000000000000000
57 57 1.0000000000000000
57 357 1.0000000000000000
58 58 1.0000000000000000
58 358 1.0000000000000000
59 59 1.0000000000000000
59 359 1.0000000000000000
60 60 1.0000000000000000
60 360 1.0000000000000000
61 61 1.0000000000000000
61 361 1.0000000000000000
62 62 1.0000000000000000
62 362 1.0000000000000000
63 63 1.0000000000000000
63 363 1.0000000000000000
64 64 1.0000000000000000
64 364 1.0000000000000000
65 65 1.0000000000000000
65 365 1.0000000000000000
66 66 1.0000000000000000
66 366 1.0000000000000000
67 67 1.0000000000000000
67 367 1.0000000000000000
68 68 1.0000000000000000
68 368 1.0000000000000000
69 69 1.0000000000000000
69 369 1.0000000000000000
70 70 1.0000000000000000
70 370 1.0000000000000000
71 71 1.0000000000000000
71 371 1.0000000000000000
72 72 1.0000000000000000
72 372 1.0000000000000000
73 73 1.0000000000000000
73 373 1.0000000000000000
74 74 1.0000000000000000
74 374 1.0000000000000000
75 75 1.0000000000000000
75 375 1.0000000000000000
76 76 1.0000000000000000
76 376 1.0000000000000000
77 77 1.0000000000000000
77 377 1.0000000000000000
78 78 1.0000000000000000
78 378 1.0000000000000000
79 79 1.0000000000000000
79 379 1.0000000000000000
80 80 1.0000000000000000
80 380 1.0000000000000000
81 81 1.0000000000000000
81 381 1.0000000000000000
82 82 1.0000000000000000
82 382 1.0000000000000000
83 83 1.0000000000000000
83 383 1.0000000000000000
84 84 1.0000000000000000
84 384 1.0000000000000000
85 85 1.0000000000000000
85 385 1.0000000000000000
86 86 1.0000000000000000
86 386 1.0000000000000000
87 87 1.0000000000000000
87 387 1.0000000000000000
88 88 1.0000000000000000
88 388 1.0000000000000000
89 89 1.0000000000000000
89 389 1.0000000000000000
90 90 1.0000000000000000
90 390 1.0000000000000000
91 91 1.0000000000000000
91 391 1.0000000000000000
92 92 1.0000000000000000
92 392 1.0000000000000000
93 93 1.0000000000000000
93 393 1.0000000000000000
94 94 1.0000000000000000
94 394 1.0000000000000000
95 95 1.0000000000000000
95 395 1.0000000000000000
96 96 1.0000000000000000
96 396 1.0000000000000000
97 97 1.0000000000000000
97 397 1.0000000000000000
98 98 1.0000000000000000
98 398 1.0000000000000000
99 99 1.0000000000000000
99 399 1.0000000000000000
100 100 1.0000000000000000
100 400 1.0000000000000000
101 101 1.0000000000000000
101 401 1.0000000000000000
102 102 1.0000000000000000
102 402 1.0000000000000000
103 103 1.0000000000000000
103 403 1.0000000000000000
104 104 1.0000000000000000
104 404 1.0000000000000000
105 105 1.0000000000000000
105 405 1.0000000000000000
106 106 1.0000000000000000
106 406 1.0000000000000000
107 107 1.0000000000000000
107 407 1.0000000000000000
108 108 1.0000000000000000
108 408 1.0000000000000000
109 109 1.0000000000000000
109 409 1.0000000000000000
110 110 1.0000000000000000
110 410 1.0000000000000000
111 111 1.0000000000000000
111 411 1.0000000000000000
112 112 1.0000000000000000
112 412 1.0000000000000000
113 113 1.0000000000000000
113 413 1.0000000000000000
114 114 1.0000000000000000
114 414 1.0000000000000000
115 115 1.0000000000000000
115 415 1.0000000000000000
116 116 1.0000000000000000
116 416 1.0000000000000000
117 117 1.0000000000000000
117 417 1.0000000000000000
118 118 1.0000000000000000
118 418 1.0000000000000000
119 119 1.0000000000000000
119 419 1.0000000000000000
120 120 1.0000000000000000
120 420 1.0000000000000000
121 121 1.0000000000000000
121 421 1.0000000000000000
122 122 1.0000000000000000
122 422 1.0000000000000000
123 123 1.0000000000000000
123 423 1.0000000000000000
124 124 1.0000000000000000
124 424 1.0000000000000000
125 125 1.0000000000000000
125 425 1.0000000000000000
126 126 1.0000000000000000
126 426 1.0000000000000000
127 127 1.0000000000000000
127 427 1.0000000000000000
128 128 1.0000000000000000
128 428 1.0000000000000000
129 129 1.0000000000000000
129 429 1.0000000000000000
130 130 1.0000000000000000
130 430 1.0000000000000000
131 131 1.0000000000000000
131 431 1.0000000000000000
132 132 1.0000000000000000
132 432 1.0000000000000000
133 133 1.0000000000000000
133 433 1.0000000000000000
134 134 1.0000000000000000
134 434 1.0000000000000000
135 135 1.0000000000000000
135 435 1.0000000000000000
136 136 1.0000000000000000
136 436 1.0000000000000000
137 137 1.0000000000000000
137 437 1.0000000000000000
138 138 1.0000000000000000
138 438 1.0000000000000000
139 139 1.0000000000000000
139 439 1.0000000000000000
140 140 1.0000000000000000
140 440 1.0000000000000000
141 141 1.0000000000000000
141 441 1.0000000000000000
142 142 1.0000000000000000
142 442 1.0000000000000000
143 143 1.0000000000000000
143 443 1.0000000000000000
144 144 1.0000000000000000
144 444 1.0000000000000000
145 145 1.0000000000000000
145 445 1.0000000000000000
146 146 1.0000000000000000
146 446 1.0000000000000000
147 147 1.0000000000000000
147 447 1.0000000000000000
148 148 1.0000000000000000
148 448 1.0000000000000000
149 149 1.0000000000000000
149 449 1.0000000000000000
150 150 1.0000000000000000
150 450 1.0000000000000000
151 151 1.0000000000000000
151 451 1.0000000000000000
152 152 1.0000000000000000
152 452 1.0000000000000000
153 153 1.0000000000000000
153 453 1.0000000000000000
154 154 1.0000000000000000
154 454 1.0000000000000000
155 155 1.0000000000000000
155 455 1.0000000000000000
156 156 1.0000000000000000
156 456 1.0000000000000000
157 157 1.0000000000000000
157 457 1.0000000000000000
158 158 1.0000000000000000
158 458 1.0000000000000000
159 159 1.0000000000000000
159 459 1.0000000000000000
160 160 1.0000000000000000
160 460 1.0000000000000000
161 161 1.0000000000000000
161 461 1.0000000000000000
162 162 1.0000000000000000
162 462 1.0000000000000000
163 163 1.0000000000000000
163 463 1.0000000000000000
164 164 1.0000000000000000
164 464 1.0000000000000000
165 165 1.0000000000000000
165 465 1.0000000000000000
166 166 1.0000000000000000
166 466 1.0000000000000000
167 167 1.0000000000000000
167 467 1.0000000000000000
168 168 1.0000000000000000
168 468 1.0000000000000000
169 169 1.0000000000000000
169 469 1.0000000000000000
170 170 1.0000000000000000
170 470 1.0000000000000000
171 171 1.0000000000000000
171 471 1.0000000000000000
172 172 1.0000000000000000
172 472 1.0000000000000000
173 173 1.0000000000000000
173 473 1.0000000000000000
174 174 1.0000000000000000
174 474 1.0000000000000000
175 175 1.0000000000000000
175 475 1.0000000000000000
176 176 1.0000000000000000
176 476 1.0000000000000000
177 177 1.0000000000000000
177 477 1.0000000000000000
178 178 1.0000000000000000
178 478 1.0000000000000000
179 179 1.0000000000000000
179 479 1.0000000000000000
180 180 1.0000000000000000
180 480 1.0000000000000000
181 181 1.0000000000000000
181 481 1.0000000000000000
182 182 1.0000000000000000
182 482 1.0000000000000000
183 183 1.0000000000000000
183 483 1.0000000000000000
184 184 1.0000000000000000
184 484 1.0000000000000000
185 185 1.0000000000000000
185 485 1.0000000000000000
186 186 1.0000000000000000
186 486 1.0000000000000000
187 187 1.0000000000000000
187 487 1.0000000000000000
188 188 1.0000000000000000
188 488 1.0000000000000000
189 189 1.0000000000000000
189 489 1.0000000000000000
190 190 1.0000000000000000
190 490 1.0000000000000000
191 191 1.0000000000000000
191 491 1.0000000000000000
192 192 1.0000000000000000
192 492 1.0000000000000000
193 193 1.0000000000000000
193 493 1.0000000000000000
194 194 1.0000000000000000
194 494 1.0000000000000000
195 195 1.0000000000000000
195 495 1.0000000000000000
196 196 1.0000000000000000
196 496 1.0000000000000000
197 197 1.0000000000000000
197 497 1.0000000000000000
198 198 1.0000000000000000
198 498 1.0000000000000000
199 199 1.0000000000000000
199 499 1.0000000000000000
200 200 1.0000000000000000
200 500 1.0000000000000000
201 201 1.0000000000000000
201 501 1.0000000000000000
202 202 1.0000000000000000
202 502 1.0000000000000000
203 203 1.0000000000000000
203 503 1.0000000000000000
204 204 1.0000000000000000
204 504 1.0000000000000000
205 205 1.0000000000000000
205 505 1.0000000000000000
206 206 1.0000000000000000
206 506 1.0000000000000000
207 207 1.0000000000000000
207 507 1.0000000000000000
208 208 1.0000000000000000
208 508 1.0000000000000000
209 209 1.0000000000000000
209 509 1.0000000000000000
210 210 1.0000000000000000
210 510 1.0000000000000000
211 211 1.0000000000000000
211 511 1.0000000000000000
212 212 1.0000000000000000
212 512 1.0000000000000000
213 213 1.0000000000000000
213 513 1.0000000000000000
214 214 1.0000000000000000
214 514 1.0000000000000000
215 215 1.0000000000000000
215 515 1.0000000000000000
216 216 1.0000000000000000
216 516 1.0000000000000000
217 217 1.0000000000000000
217 517 1.0000000000000000
218 218 1.0000000000000000
218 518 1.0000000000000000
219 219 1.0000000000000000
219 519 1.0000000000000000
220 220 1.0000000000000000
220 520 1.0000000000000000
221 221 1.0000000000000000
221 521 1.0000000000000000
222 222 1.0000000000000000
222 522 1.0000000000000000
223 223 1.0000000000000000
223 523 1.0000000000000000
224 224 1.0000000000000000
224 524 1.0000000000000000
225 225 1.0000000000000000
225 525 1.0000000000000000
226 226 1.0000000000000000
226 526 1.0000000000000000
227 227 1.0000000000000000
227 527 1.0000000000000000
228 228 1.0000000000000000
228 528 1.0000000000000000
229 229 1.0000000000000000
229 529 1.0000000000000000
230 230 1.0000000000000000
230 530 1.0000000000000000
231 231 1.0000000000000000
231 531 1.0000000000000000
232 232 1.0000000000000000
232 532 1.0000000000000000
233 233 1.0000000000000000
233 533 1.0000000000000000
234 234 1.0000000000000000
234 534 1.0000000000000000
235 235 1.0000000000000000
235 535 1.0000000000000000
236 236 1.0000000000000000
236 536 1.0000000000000000
237 237 1.0000000000000000
237 537 1.0000000000000000
238 238 1.0000000000000000
238 538 1.0000000000000000
239 239 1.0000000000000000
239 539 1.0000000000000000
240 240 1.0000000000000000
240 540 1.0000000000000000
241 241 1.0000000000000000
241 541 1.0000000000000000
242 242 1.0000000000000000
242 542 1.0000000000000000
243 243 1.0000000000000000
243 543 1.0000000000000000
244 244 1.0000000000000000
244 544 1.0000000000000000
245 245 1.0000000000000000
245 545 1.0000000000000000
246 246 1.0000000000000000
246 546 1.0000000000000000
247 247 1.0000000000000000
247 547 1.0000000000000000
248 248 1.0000000000000000
248 548 1.0000000000000000
249 249 1.0000000000000000
249 549 1.0000000000000000
250 250 1.0000000000000000
250 550 1.0000000000000000
251 251 1.0000000000000000
251 551 1.0000000000000000
252 252 1.0000000000000000
252 552 1.0000000000000000
253 253 1.0000000000000000
253 553 1.0000000000000000
254 254 1.0000000000000000
254 554 1.0000000000000000
255 255 1.0000000000000000
255 555 1.0000000000000000
256 256 1.0000000000000000
256 556 1.0000000000000000
257 257 1.0000000000000000
257 557 1.0000000000000000
258 258 1.0000000000000000
258 558 1.0000000000000000
259 259 1.0000000000000000
259 559 1.0000000000000000
260 260 1.0000000000000000
260 560 1.0000000000000000
261 261 1.0000000000000000
261 561 1.0000000000000000
262 262 1.0000000000000000
262 562 1.0000000000000000
263 263 1.0000000000000000
263 563 1.0000000000000000
264 264 1.0000000000000000
264 564 1.0000000000000000
265 265 1.0000000000000000
265 565 1.0000000000000000
266 266 1.0000000000000000
266 566 1.0000000000000000
267 267 1.0000000000000000
267 567 1.0000000000000000
268 268 1.0000000000000000
268 568 1.0000000000000000
269 269 1.0000000000000000
269 569 1.0000000000000000
270 270 1.0000000000000000
270 570 1.0000000000000000
271 271 1.0000000000000000
271 571 1.0000000000000000
272 272 1.0000000000000000
272 572 1.0000000000000000
273 273 1.0000000000000000
273 573 1.0000000000000000
274 274 1.0000000000000000
274 574 1.0000000000000000
275 275 1.0000000000000000
275 575 1.0000000000000000
276 276 1.0000000000000000
276 576 1.0000000000000000
277 277 1.0000000000000000
277 577 1.0000000000000000
278 278 1.0000000000000000
278 578 1.0000000000000000
279 279 1.0000000000000000
279 579 1.0000000000000000
280 280 1.0000000000000000
280 580 1.0000000000000000
281 281 1.0000000000000000
281 581 1.0000000000000000
282 282 1.0000000000000000
282 582 1.0000000000000000
283 283 1.0000000000000000
283 583 1.0000000000000000
284 284 1.0000000000000000
284 584 1.0000000000000000
285 285 1.0000000000000000
285 585 1.0000000000000000
286 286 1.0000000000000000
286 586 1.0000000000000000
287 287 1.0000000000000000
287 587 1.0000000000000000
288 288 1.0000000000000000
288 588 1.0000000000000000
289 289 1.0000000000000000
289 589 1.0000000000000000
290 290 1.0000000000000000
290 590 1.0000000000000000
291 291 1.0000000000000000
291 591 1.0000000000000000
292 292 1.0000000000000000
292 592 1.0000000000000000
293 293 1.0000000000000000
293 593 1.0000000000000000
294 294 1.0000000000000000
294 594 1.0000000000000000
295 295 1.0000000000000000
295 595 1.0000000000000000
296 296 1.0000000000000000
296 596 1.0000000000000000
297 297 1.0000000000000000
297 597 1.0000000000000000
298 298 1.0000000000000000
298 598 1.0000000000000000
299 299 1.0000000000000000
299 599 1.0000000000000000
300 300 1.0000000000000000
300 600 1.0000000000000000
301 1 1.0000000000000000
301 2 1.0000000000000000
301 3 1.0000000000000000
301 4 1.0000000000000000
301 5 1.0000000000000000
301 6 1.0000000000000000
301 7 1.0000000000000000
301 8 1.0000000000000000
301 9 1.0000000000000000
301 10 1.0000000000000000
301 11 1.0000000000000000
301 12 1.0000000000000000
301 13 1.0000000000000000
301 14 1.0000000000000000
301 15 1.0000000000000000
301 16 1.0000000000000000
301 17 1.0000000000000000
301 18 1.0000000000000000
301 19 1.0000000000000000
301 20 1.0000000000000000
301 21 1.0000000000000000
301 22 1.0000000000000000
301 23 1.0000000000000000
301 24 1.0000000000000000
301 25 1.0000000000000000
301 26 1.0000000000000000
301 27 1.0000000000000000
301 28 1.0000000000000000
301 29 1.0000000000000000
301 30 1.0000000000000000
301 31 1.0000000000000000
301 32 1.0000000000000000
301 33 1.0000000000000000
301 34 1.0000000000000000
301 35 1.0000000000000000
301 36 1.0000000000000000
301 37 1.0000000000000000
301 38 1.0000000000000000
301 39 1.0000000000000000
301 40 1.0000000000000000
301 41 1.0000000000000000
301 42 1.0000000000000000
301 43 1.0000000000000000
301 44 1.0000000000000000
301 45 1.0000000000000000
301 46 1.0000000000000000
301 47 1.0000000000000000
301 48 1.0000000000000000
301 49 1.0000000000000000
301 50 1.0000000000000000
301 51 1.0000000000000000
301 52 1.0000000000000000
301 53 1.0000000000000000
301 54 1.0000000000000000
301 55 1.0000000000000000
301 56 1.0000000000000000
301 57 1.0000000000000000
301 58 1.0000000000000000
301 59 1.0000000000000000
301 60 1.0000000000000000
301 61 1.0000000000000000
301 62 1.0000000000000000
301 63 1.0000000000000000
301 64 1.0000000000000000
301 65 1.0000000000000000
301 66 1.0000000000000000
301 67 1.0000000000000000
301 68 1.0000000000000000
301 69 1.0000000000000000
301 70 1.0000000000000000
301 71 1.0000000000000000
301 72 1.0000000000000000
301 73 1.0000000000000000
301 74 1.0000000000000000
301 75 1.0000000000000000
301 76 1.0000000000000000
301 77 1.0000000000000000
301 78 1.0000000000000000
301 79 1.0000000000000000
301 80 1.0000000000000000
301 81 1.0000000000000000
301 82 1.0000000000000000
301 83 1.0000000000000000
301 84 1.0000000000000000
301 85 1.0000000000000000
301 86 1.0000000000000000
301 87 1.0000000000000000
301 88 1.0000000000000000
301 89 1.0000000000000000
301 90 1.0000000000000000
301 91 1.0000000000000000
301 92 1.0000000000000000
301 93 1.0000000000000000
301 94 1.0000000000000000
301 95 1.0000000000000000
301 96 1.0000000000000000
301 97 1.0000000000000000
301 98 1.0000000000000000
301 99 1.0000000000000000
301 100 1.0000000000000000
301 101 1.0000000000000000
301 102 1.0000000000000000
301 103 1.0000000000000000
301 104 1.0000000000000000
301 105 1.0000000000000000
301 106 1.0000000000000000
301 107 1.0000000000000000
301 108 1.0000000000000000
301 109 1.0000000000000000
301 110 1.0000000000000000
301 111 1.0000000000000000
301 112 1.0000000000000000
301 113 1.0000000000000000
301 114 1.0000000000000000
301 115 1.0000000000000000
301 116 1.0000000000000000
301 117 1.0000000000000000
301 118 1.0000000000000000
301 119 1.0000000000000000
301 120 1.0000000000000000
301 121 1.0000000000000000
301 122 1.0000000000000000
301 123 1.0000000000000000
301 124 1.0000000000000000
301 125 1.0000000000000000
301 126 1.0000000000000000
301 127 1.0000000000000000
301 128 1.0000000000000000
301 129 1.0000000000000000
301 130 1.0000000000000000
301 131 1.0000000000000000
301 132 1.0000000000000000
301 133 1.0000000000000000
301 134 1.0000000000000000
301 135 1.0000000000000000
301 136 1.0000000000000000
301 137 1.0000000000000000
301 138 1.0000000000000000
301 139 1.0000000000000000
301 140 1.0000000000000000
301 141 1.0000000000000000
301 142 1.0000000000000000
301 143 1.0000000000000000
301 144 1.0000000000000000
301 145 1.0000000000000000
301 146 1.0000000000000000
301 147 1.0000000000000000
301 148 1.0000000000000000
301 149 1.0000000000000000
301 150 1.0000000000000000
301 151 1.0000000000000000
301 152 1.0000000000000000
301 153 1.0000000000000000
301 154 1.0000000000000000
301 155 1.0000000000000000
301 156 1.0000000000000000
301 157 1.0000000000000000
301 158 1.0000000000000000
301 159 1.0000000000000000
301 160 1.0000000000000000
301 161 1.0000000000000000
301 162 1.0000000000000000
301 163 1.0000000000000000
301 164 1.0000000000000000
301 165 1.0000000000000000
301 166 1.0000000000000000
301 167 1.0000000000000000
301 168 1.0000000000000000
301 169 1.0000000000000000
301 170 1.0000000000000000
301 171 1.0000000000000000
301 172 1.0000000000000000
301 173 1.0000000000000000
301 174 1.0000000000000000
301 175 1.0000000000000000
301 176 1.0000000000000000
301 177 1.0000000000000000
301 178 1.0000000000000000
301 179 1.0000000000000000
301 180 1.0000000000000000
301 181 1.0000000000000000
301 182 1.0000000000000000
301 183 1.0000000000000000
301 184 1.0000000000000000
301 185 1.0000000000000000
301 186 1.0000000000000000
301 187 1.0000000000000000
301 188 1.0000000000000000
301 189 1.0000000000000000
301 190 1.0000000000000000
301 191 1.0000000000000000
301 192 1.0000000000000000
301 193 1.0000000000000000
301 194 1.0000000000000000
301 195 1.0000000000000000
301 196 1.0000000000000000
301 197 1.0000000000000000
301 198 1.0000000000000000
301 199 1.0000000000000000
301 200 1.0000000000000000
301 201 1.0000000000000000
301 202 1.0000000000000000
301 203 1.0000000000000000
301 204 1.0000000000000000
301 205 1.0000000000000000
301 206 1.0000000000000000
301 207 1.0000000000000000
301 208 1.0000000000000000
301 209 1.0000000000000000
301 210 1.0000000000000000
301 211 1.0000000000000000
301 212 1.0000000000000000
301 213 1.0000000000000000
301 214 1.0000000000000000
301 215 1.0000000000000000
301 216 1.0000000000000000
301 217 1.0000000000000000
301 218 1.0000000000000000
301 219 1.0000000000000000
301 220 1.0000000000000000
301 221 1.0000000000000000
301 222 1.0000000000000000
301 223 1.0000000000000000
301 224 1.0000000000000000
301 225 1.0000000000000000
301 226 1.0000000000000000
301 227 1.0000000000000000
301 228 1.0000000000000000
301 229 1.0000000000000000
301 230 1.0000000000000000
301 231 1.0000000000000000
301 232 1.0000000000000000
301 233 1.0000000000000000
301 234 1.0000000000000000
301 235 1.0000000000000000
301 236 1.0000000000000000
301 237 1.0000000000000000
301 238 1.0000000000000000
301 239 1.0000000000000000
301 240 1.0000000000000000
301 241 1.0000000000000000
301 242 1.0000000000000000
301 243 1.0000000000000000
301 244 1.0000000000000000
301 245 1.0000000000000000
301 246 1.0000000000000000
301 247 1.0000000000000000
301 248 1.0000000000000000
301 249 1.0000000000000000
301 250 1.0000000000000000
301 251 1.0000000000000000
301 252 1.0000000000000000
301 253 1.0000000000000000
301 254 1.0000000000000000
301 255 1.0000000000000000
301 256 1.0000000000000000
301 257 1.0000000000000000
301 258 1.0000000000000000
301 259 1.0000000000000000
301 260 1.0000000000000000
301 261 1.0000000000000000
301 262 1.0000000000000000
301 263 1.0000000000000000
301 264 1.0000000000000000
301 265 1.0000000000000000
301 266 1.0000000000000000
301 267 1.0000000000000000
301 268 1.0000000000000000
301 269 1.0000000000000000
301 270 1.0000000000000000
301 271 1.0000000000000000
301 272 1.0000000000000000
301 273 1.0000000000000000
301 274 1.0000000000000000
301 275 1.0000000000000000
301 276 1.0000000000000000
301 277 1.0000000000000000
301 278 1.0000000000000000
301 279 1.0000000000000000
301 280 1.0000000000000000
301 281 1.0000000000000000
301 282 1.0000000000000000
301 283 1.0000000000000000
301 284 1.0000000000000000
301 285 1.0000000000000000
301 286 1.0000000000000000
301 287 1.0000000000000000
301 288 1.0000000000000000
301 289 1.0000000000000000
301 290 1.0000000000000000
301 291 1.0000000000000000
301 292 1.0000000000000000
301 293 1.0000000000000000
301 294 1.0000000000000000
301 295 1.0000000000000000
301 296 1.0000000000000000
301 297 1.0000000000000000
301 298 1.0000000000000000
301 299 1.0000000000000000
301 300 1.0000000000000000
301 601 1.0000000000000000
