2001 1
200.0000000000000000
200.0000000000000000
200.0000000000000000
200.0000000000000000
200.0000000000000000
200.0000000000000000
200.0000000000000000
200.0000000000000000
200.0000000000000000
200.0000000000000000
200.0000000000000000
200.0000000000000000
200.0000000000000000
200.0000000000000000
200.0000000000000000
200.0000000000000000
200.0000000000000000
200.0000000000000000
200.0000000000000000
200.0000000000000000
200.0000000000000000
200.0000000000000000
200.0000000000000000
200.0000000000000000
200.0000000000000000
200.0000000000000000
200.0000000000000000
200.0000000000000000
200.0000000000000000
200.0000000000000000
200.0000000000000000
200.0000000000000000
200.0000000000000000
200.0000000000000000
200.0000000000000000
200.0000000000000000
200.0000000000000000
200.0000000000000000
200.0000000000000000
200.0000000000000000
200.0000000000000000
200.0000000000000000
200.0000000000000000
200.0000000000000000
200.0000000000000000
200.0000000000000000
200.0000000000000000
200.0000000000000000
200.0000000000000000
200.0000000000000000
200.0000000000000000
200.0000000000000000
200.0000000000000000
200.0000000000000000
200.0000000000000000
200.0000000000000000
200.0000000000000000
200.0000000000000000
200.0000000000000000
200.0000000000000000
200.0000000000000000
200.0000000000000000
200.0000000000000000
200.0000000000000000
200.0000000000000000
200.0000000000000000
200.0000000000000000
200.0000000000000000
200.0000000000000000
200.0000000000000000
200.0000000000000000
200.0000000000000000
200.0000000000000000
200.0000000000000000
200.0000000000000000
200.0000000000000000
200.0000000000000000
200.0000000000000000
200.0000000000000000
200.0000000000000000
200.0000000000000000
200.0000000000000000
200.0000000000000000
200.0000000000000000
200.0000000000000000
200.0000000000000000
200.0000000000000000
200.0000000000000000
200.0000000000000000
200.0000000000000000
200.0000000000000000
200.0000000000000000
200.0000000000000000
200.0000000000000000
200.0000000000000000
200.0000000000000000
200.0000000000000000
200.0000000000000000
200.0000000000000000
200.0000000000000000
200.0000000000000000
200.0000000000000000
200.0000000000000000
200.0000000000000000
200.0000000000000000
200.0000000000000000
200.0000000000000000
200.0000000000000000
200.0000000000000000
200.0000000000000000
200.0000000000000000
200.0000000000000000
200.0000000000000000
200.0000000000000000
200.0000000000000000
200.0000000000000000
200.0000000000000000
200.0000000000000000
200.0000000000000000
200.0000000000000000
200.0000000000000000
200.0000000000000000
200.0000000000000000
200.0000000000000000
200.0000000000000000
200.0000000000000000
200.0000000000000000
200.0000000000000000
200.0000000000000000
200.0000000000000000
200.0000000000000000
200.0000000000000000
200.0000000000000000
200.0000000000000000
200.0000000000000000
200.0000000000000000
200.0000000000000000
200.0000000000000000
200.0000000000000000
200.0000000000000000
200.0000000000000000
200.0000000000000000
200.0000000000000000
200.0000000000000000
200.0000000000000000
200.0000000000000000
200.0000000000000000
200.0000000000000000
200.0000000000000000
200.0000000000000000
200.0000000000000000
200.0000000000000000
200.0000000000000000
200.0000000000000000
200.0000000000000000
200.0000000000000000
200.0000000000000000
200.0000000000000000
200.0000000000000000
200.0000000000000000
200.0000000000000000
200.0000000000000000
200.0000000000000000
200.0000000000000000
200.0000000000000000
200.0000000000000000
200.0000000000000000
200.0000000000000000
200.0000000000000000
200.0000000000000000
200.0000000000000000
200.0000000000000000
200.0000000000000000
200.0000000000000000
200.0000000000000000
200.0000000000000000
200.0000000000000000
200.0000000000000000
200.0000000000000000
200.0000000000000000
200.0000000000000000
200.0000000000000000
200.0000000000000000
200.0000000000000000
200.0000000000000000
200.0000000000000000
200.0000000000000000
200.0000000000000000
200.0000000000000000
200.0000000000000000
200.0000000000000000
200.0000000000000000
200.0000000000000000
200.0000000000000000
200.0000000000000000
200.0000000000000000
200.0000000000000000
200.0000000000000000
200.0000000000000000
200.0000000000000000
200.0000000000000000
200.0000000000000000
200.0000000000000000
200.0000000000000000
200.0000000000000000
200.0000000000000000
200.0000000000000000
200.0000000000000000
200.0000000000000000
200.0000000000000000
200.0000000000000000
200.0000000000000000
200.0000000000000000
200.0000000000000000
200.0000000000000000
200.0000000000000000
200.0000000000000000
200.0000000000000000
200.0000000000000000
200.0000000000000000
200.0000000000000000
200.0000000000000000
200.0000000000000000
200.0000000000000000
200.0000000000000000
200.0000000000000000
200.0000000000000000
200.0000000000000000
200.0000000000000000
200.0000000000000000
200.0000000000000000
200.0000000000000000
200.0000000000000000
200.0000000000000000
200.0000000000000000
200.0000000000000000
200.0000000000000000
200.0000000000000000
200.0000000000000000
200.0000000000000000
200.0000000000000000
200.0000000000000000
200.0000000000000000
200.0000000000000000
200.0000000000000000
200.0000000000000000
200.0000000000000000
200.0000000000000000
200.0000000000000000
200.0000000000000000
200.0000000000000000
200.0000000000000000
200.0000000000000000
200.0000000000000000
200.0000000000000000
200.0000000000000000
200.0000000000000000
200.0000000000000000
200.0000000000000000
200.0000000000000000
200.0000000000000000
200.0000000000000000
200.0000000000000000
200.0000000000000000
200.0000000000000000
200.0000000000000000
200.0000000000000000
200.0000000000000000
200.0000000000000000
200.0000000000000000
200.0000000000000000
200.0000000000000000
200.0000000000000000
200.0000000000000000
200.0000000000000000
200.0000000000000000
200.0000000000000000
200.0000000000000000
200.0000000000000000
200.0000000000000000
200.0000000000000000
200.0000000000000000
200.0000000000000000
200.0000000000000000
200.0000000000000000
200.0000000000000000
200.0000000000000000
200.0000000000000000
200.0000000000000000
200.0000000000000000
200.0000000000000000
200.0000000000000000
200.0000000000000000
200.0000000000000000
200.0000000000000000
200.0000000000000000
200.0000000000000000
200.0000000000000000
200.0000000000000000
200.0000000000000000
200.0000000000000000
200.0000000000000000
200.0000000000000000
200.0000000000000000
200.0000000000000000
200.0000000000000000
200.0000000000000000
200.0000000000000000
200.0000000000000000
200.0000000000000000
200.0000000000000000
200.0000000000000000
200.0000000000000000
200.0000000000000000
200.0000000000000000
200.0000000000000000
200.0000000000000000
200.0000000000000000
200.0000000000000000
200.0000000000000000
200.0000000000000000
200.0000000000000000
200.0000000000000000
200.0000000000000000
200.0000000000000000
200.0000000000000000
200.0000000000000000
200.0000000000000000
200.0000000000000000
200.0000000000000000
200.0000000000000000
200.0000000000000000
200.0000000000000000
200.0000000000000000
200.0000000000000000
200.0000000000000000
200.0000000000000000
200.0000000000000000
200.0000000000000000
200.0000000000000000
200.0000000000000000
200.0000000000000000
200.0000000000000000
200.0000000000000000
200.0000000000000000
200.0000000000000000
200.0000000000000000
200.0000000000000000
200.0000000000000000
200.0000000000000000
200.0000000000000000
200.0000000000000000
200.0000000000000000
200.0000000000000000
200.0000000000000000
200.0000000000000000
200.0000000000000000
200.0000000000000000
200.0000000000000000
200.0000000000000000
200.0000000000000000
200.0000000000000000
200.0000000000000000
200.0000000000000000
200.0000000000000000
200.0000000000000000
200.0000000000000000
200.0000000000000000
200.0000000000000000
200.0000000000000000
200.0000000000000000
200.0000000000000000
200.0000000000000000
200.0000000000000000
200.0000000000000000
200.0000000000000000
200.0000000000000000
200.0000000000000000
200.0000000000000000
200.0000000000000000
200.0000000000000000
200.0000000000000000
200.0000000000000000
200.0000000000000000
200.0000000000000000
200.0000000000000000
200.0000000000000000
200.0000000000000000
200.0000000000000000
200.0000000000000000
200.0000000000000000
200.0000000000000000
200.0000000000000000
200.0000000000000000
200.0000000000000000
200.0000000000000000
200.0000000000000000
200.0000000000000000
200.0000000000000000
200.0000000000000000
200.0000000000000000
200.0000000000000000
200.0000000000000000
200.0000000000000000
200.0000000000000000
200.0000000000000000
200.0000000000000000
200.0000000000000000
200.0000000000000000
200.0000000000000000
200.0000000000000000
200.0000000000000000
200.0000000000000000
200.0000000000000000
200.0000000000000000
200.0000000000000000
200.0000000000000000
200.0000000000000000
200.0000000000000000
200.0000000000000000
200.0000000000000000
200.0000000000000000
200.0000000000000000
200.0000000000000000
200.0000000000000000
200.0000000000000000
200.0000000000000000
200.0000000000000000
200.0000000000000000
200.0000000000000000
200.0000000000000000
200.0000000000000000
200.0000000000000000
200.0000000000000000
200.0000000000000000
200.0000000000000000
200.0000000000000000
200.0000000000000000
200.0000000000000000
200.0000000000000000
200.0000000000000000
200.0000000000000000
200.0000000000000000
200.0000000000000000
200.0000000000000000
200.0000000000000000
200.0000000000000000
200.0000000000000000
200.0000000000000000
200.0000000000000000
200.0000000000000000
200.0000000000000000
200.0000000000000000
200.0000000000000000
200.0000000000000000
200.0000000000000000
200.0000000000000000
200.0000000000000000
200.0000000000000000
200.0000000000000000
200.0000000000000000
200.0000000000000000
200.0000000000000000
200.0000000000000000
200.0000000000000000
200.0000000000000000
200.0000000000000000
200.0000000000000000
200.0000000000000000
200.0000000000000000
200.0000000000000000
200.0000000000000000
200.0000000000000000
200.0000000000000000
200.0000000000000000
200.0000000000000000
200.0000000000000000
200.0000000000000000
200.0000000000000000
200.0000000000000000
200.0000000000000000
200.0000000000000000
200.0000000000000000
200.0000000000000000
200.0000000000000000
200.0000000000000000
200.0000000000000000
200.0000000000000000
200.0000000000000000
200.0000000000000000
200.0000000000000000
200.0000000000000000
200.0000000000000000
200.0000000000000000
200.0000000000000000
200.0000000000000000
200.0000000000000000
200.0000000000000000
200.0000000000000000
200.0000000000000000
200.0000000000000000
200.0000000000000000
200.0000000000000000
200.0000000000000000
200.0000000000000000
200.0000000000000000
200.0000000000000000
200.0000000000000000
200.0000000000000000
200.0000000000000000
200.0000000000000000
200.0000000000000000
200.0000000000000000
200.0000000000000000
200.0000000000000000
200.0000000000000000
200.0000000000000000
200.0000000000000000
200.0000000000000000
200.0000000000000000
200.0000000000000000
200.0000000000000000
200.0000000000000000
200.0000000000000000
200.0000000000000000
200.0000000000000000
200.0000000000000000
200.0000000000000000
200.0000000000000000
200.0000000000000000
200.0000000000000000
200.0000000000000000
200.0000000000000000
200.0000000000000000
200.0000000000000000
200.0000000000000000
200.0000000000000000
200.0000000000000000
200.0000000000000000
200.0000000000000000
200.0000000000000000
200.0000000000000000
200.0000000000000000
200.0000000000000000
200.0000000000000000
200.0000000000000000
200.0000000000000000
200.0000000000000000
200.0000000000000000
200.0000000000000000
200.0000000000000000
200.0000000000000000
200.0000000000000000
200.0000000000000000
200.0000000000000000
200.0000000000000000
200.0000000000000000
200.0000000000000000
200.0000000000000000
200.0000000000000000
200.0000000000000000
200.0000000000000000
200.0000000000000000
200.0000000000000000
200.0000000000000000
200.0000000000000000
200.0000000000000000
200.0000000000000000
200.0000000000000000
200.0000000000000000
200.0000000000000000
200.0000000000000000
200.0000000000000000
200.0000000000000000
200.0000000000000000
200.0000000000000000
200.0000000000000000
200.0000000000000000
200.0000000000000000
200.0000000000000000
200.0000000000000000
200.0000000000000000
200.0000000000000000
200.0000000000000000
200.0000000000000000
200.0000000000000000
200.0000000000000000
200.0000000000000000
200.0000000000000000
200.0000000000000000
200.0000000000000000
200.0000000000000000
200.0000000000000000
200.0000000000000000
200.0000000000000000
200.0000000000000000
200.0000000000000000
200.0000000000000000
200.0000000000000000
200.0000000000000000
200.0000000000000000
200.0000000000000000
200.0000000000000000
200.0000000000000000
200.0000000000000000
200.0000000000000000
200.0000000000000000
200.0000000000000000
200.0000000000000000
200.0000000000000000
200.0000000000000000
200.0000000000000000
200.0000000000000000
200.0000000000000000
200.0000000000000000
200.0000000000000000
200.0000000000000000
200.0000000000000000
200.0000000000000000
200.0000000000000000
200.0000000000000000
200.0000000000000000
200.0000000000000000
200.0000000000000000
200.0000000000000000
200.0000000000000000
200.0000000000000000
200.0000000000000000
200.0000000000000000
200.0000000000000000
200.0000000000000000
200.0000000000000000
200.0000000000000000
200.0000000000000000
200.0000000000000000
200.0000000000000000
200.0000000000000000
200.0000000000000000
200.0000000000000000
200.0000000000000000
200.0000000000000000
200.0000000000000000
200.0000000000000000
200.0000000000000000
200.0000000000000000
200.0000000000000000
200.0000000000000000
200.0000000000000000
200.0000000000000000
200.0000000000000000
200.0000000000000000
200.0000000000000000
200.0000000000000000
200.0000000000000000
200.0000000000000000
200.0000000000000000
200.0000000000000000
200.0000000000000000
200.0000000000000000
200.0000000000000000
200.0000000000000000
200.0000000000000000
200.0000000000000000
200.0000000000000000
200.0000000000000000
200.0000000000000000
200.0000000000000000
200.0000000000000000
200.0000000000000000
200.0000000000000000
200.0000000000000000
200.0000000000000000
200.0000000000000000
200.0000000000000000
200.0000000000000000
200.0000000000000000
200.0000000000000000
200.0000000000000000
200.0000000000000000
200.0000000000000000
200.0000000000000000
200.0000000000000000
200.0000000000000000
200.0000000000000000
200.0000000000000000
200.0000000000000000
200.0000000000000000
200.0000000000000000
200.0000000000000000
200.0000000000000000
200.0000000000000000
200.0000000000000000
200.0000000000000000
200.0000000000000000
200.0000000000000000
200.0000000000000000
200.0000000000000000
200.0000000000000000
200.0000000000000000
200.0000000000000000
200.0000000000000000
200.0000000000000000
200.0000000000000000
200.0000000000000000
200.0000000000000000
200.0000000000000000
200.0000000000000000
200.0000000000000000
200.0000000000000000
200.0000000000000000
200.0000000000000000
200.0000000000000000
200.0000000000000000
200.0000000000000000
200.0000000000000000
200.0000000000000000
200.0000000000000000
200.0000000000000000
200.0000000000000000
200.0000000000000000
200.0000000000000000
200.0000000000000000
200.0000000000000000
200.0000000000000000
200.0000000000000000
200.0000000000000000
200.0000000000000000
200.0000000000000000
200.0000000000000000
200.0000000000000000
200.0000000000000000
200.0000000000000000
200.0000000000000000
200.0000000000000000
200.0000000000000000
200.0000000000000000
200.0000000000000000
200.0000000000000000
200.0000000000000000
200.0000000000000000
200.0000000000000000
200.0000000000000000
200.0000000000000000
200.0000000000000000
200.0000000000000000
200.0000000000000000
200.0000000000000000
200.0000000000000000
200.0000000000000000
200.0000000000000000
200.0000000000000000
200.0000000000000000
200.0000000000000000
200.0000000000000000
200.0000000000000000
200.0000000000000000
200.0000000000000000
200.0000000000000000
200.0000000000000000
200.0000000000000000
200.0000000000000000
200.0000000000000000
200.0000000000000000
200.0000000000000000
200.0000000000000000
200.0000000000000000
200.0000000000000000
200.0000000000000000
200.0000000000000000
200.0000000000000000
200.0000000000000000
200.0000000000000000
200.0000000000000000
200.0000000000000000
200.0000000000000000
200.0000000000000000
200.0000000000000000
200.0000000000000000
200.0000000000000000
200.0000000000000000
200.0000000000000000
200.0000000000000000
200.0000000000000000
200.0000000000000000
200.0000000000000000
200.0000000000000000
200.0000000000000000
200.0000000000000000
200.0000000000000000
200.0000000000000000
200.0000000000000000
200.0000000000000000
200.0000000000000000
200.0000000000000000
200.0000000000000000
200.0000000000000000
200.0000000000000000
200.0000000000000000
200.0000000000000000
200.0000000000000000
200.0000000000000000
200.0000000000000000
200.0000000000000000
200.0000000000000000
200.0000000000000000
200.0000000000000000
200.0000000000000000
200.0000000000000000
200.0000000000000000
200.0000000000000000
200.0000000000000000
200.0000000000000000
200.0000000000000000
200.0000000000000000
200.0000000000000000
200.0000000000000000
200.0000000000000000
200.0000000000000000
200.0000000000000000
200.0000000000000000
200.0000000000000000
200.0000000000000000
200.0000000000000000
200.0000000000000000
200.0000000000000000
200.0000000000000000
200.0000000000000000
200.0000000000000000
200.0000000000000000
200.0000000000000000
200.0000000000000000
200.0000000000000000
200.0000000000000000
200.0000000000000000
200.0000000000000000
200.0000000000000000
200.0000000000000000
200.0000000000000000
200.0000000000000000
200.0000000000000000
200.0000000000000000
200.0000000000000000
200.0000000000000000
200.0000000000000000
200.0000000000000000
200.0000000000000000
200.0000000000000000
200.0000000000000000
200.0000000000000000
200.0000000000000000
200.0000000000000000
200.0000000000000000
200.0000000000000000
200.0000000000000000
200.0000000000000000
200.0000000000000000
200.0000000000000000
200.0000000000000000
200.0000000000000000
200.0000000000000000
200.0000000000000000
200.0000000000000000
200.0000000000000000
200.0000000000000000
200.0000000000000000
200.0000000000000000
200.0000000000000000
200.0000000000000000
200.0000000000000000
200.0000000000000000
200.0000000000000000
200.0000000000000000
200.0000000000000000
200.0000000000000000
200.0000000000000000
200.0000000000000000
200.0000000000000000
200.0000000000000000
200.0000000000000000
200.0000000000000000
200.0000000000000000
200.0000000000000000
200.0000000000000000
200.0000000000000000
200.0000000000000000
200.0000000000000000
200.0000000000000000
200.0000000000000000
200.0000000000000000
200.0000000000000000
200.0000000000000000
200.0000000000000000
200.0000000000000000
200.0000000000000000
200.0000000000000000
200.0000000000000000
200.0000000000000000
200.0000000000000000
200.0000000000000000
200.0000000000000000
200.0000000000000000
200.0000000000000000
200.0000000000000000
200.0000000000000000
200.0000000000000000
200.0000000000000000
200.0000000000000000
200.0000000000000000
200.0000000000000000
200.0000000000000000
200.0000000000000000
200.0000000000000000
200.0000000000000000
200.0000000000000000
200.0000000000000000
200.0000000000000000
200.0000000000000000
200.0000000000000000
200.0000000000000000
200.0000000000000000
200.0000000000000000
200.0000000000000000
200.0000000000000000
200.0000000000000000
200.0000000000000000
200.0000000000000000
200.0000000000000000
200.0000000000000000
200.0000000000000000
200.0000000000000000
200.0000000000000000
200.0000000000000000
200.0000000000000000
200.0000000000000000
200.0000000000000000
200.0000000000000000
200.0000000000000000
200.0000000000000000
200.0000000000000000
200.0000000000000000
200.0000000000000000
200.0000000000000000
200.0000000000000000
200.0000000000000000
200.0000000000000000
200.0000000000000000
200.0000000000000000
200.0000000000000000
200.0000000000000000
200.0000000000000000
200.0000000000000000
200.0000000000000000
200.0000000000000000
200.0000000000000000
200.0000000000000000
200.0000000000000000
200.0000000000000000
200.0000000000000000
200.0000000000000000
200.0000000000000000
200.0000000000000000
200.0000000000000000
200.0000000000000000
200.0000000000000000
200.0000000000000000
200.0000000000000000
200.0000000000000000
200.0000000000000000
200.0000000000000000
200.0000000000000000
200.0000000000000000
200.0000000000000000
200.0000000000000000
200.0000000000000000
200.0000000000000000
200.0000000000000000
200.0000000000000000
200.0000000000000000
200.0000000000000000
200.0000000000000000
200.0000000000000000
200.0000000000000000
200.0000000000000000
200.0000000000000000
200.0000000000000000
200.0000000000000000
200.0000000000000000
200.0000000000000000
200.0000000000000000
200.0000000000000000
200.0000000000000000
200.0000000000000000
200.0000000000000000
200.0000000000000000
200.0000000000000000
200.0000000000000000
200.0000000000000000
200.0000000000000000
200.0000000000000000
200.0000000000000000
200.0000000000000000
200.0000000000000000
200.0000000000000000
200.0000000000000000
200.0000000000000000
200.0000000000000000
200.0000000000000000
200.0000000000000000
200.0000000000000000
200.0000000000000000
200.0000000000000000
200.0000000000000000
200.0000000000000000
200.0000000000000000
200.0000000000000000
200.0000000000000000
200.0000000000000000
200.0000000000000000
200.0000000000000000
200.0000000000000000
200.0000000000000000
200.0000000000000000
200.0000000000000000
200.0000000000000000
200.0000000000000000
200.0000000000000000
200.0000000000000000
200.0000000000000000
200.0000000000000000
200.0000000000000000
200.0000000000000000
200.0000000000000000
200.0000000000000000
200.0000000000000000
200.0000000000000000
200.0000000000000000
200.0000000000000000
200.0000000000000000
200.0000000000000000
200.0000000000000000
200.0000000000000000
200.0000000000000000
200.0000000000000000
200.0000000000000000
200.0000000000000000
200.0000000000000000
200.0000000000000000
200.0000000000000000
200.0000000000000000
200.0000000000000000
200.0000000000000000
200.0000000000000000
200.0000000000000000
200.0000000000000000
200.0000000000000000
200.0000000000000000
200.0000000000000000
200.0000000000000000
200.0000000000000000
200.0000000000000000
200.0000000000000000
200.0000000000000000
200.0000000000000000
200.0000000000000000
200.0000000000000000
200.0000000000000000
200.0000000000000000
200.0000000000000000
200.0000000000000000
200.0000000000000000
200.0000000000000000
200.0000000000000000
200.0000000000000000
200.0000000000000000
200.0000000000000000
200.0000000000000000
200.0000000000000000
200.0000000000000000
200.0000000000000000
200.0000000000000000
200.0000000000000000
200.0000000000000000
200.0000000000000000
200.0000000000000000
200.0000000000000000
200.0000000000000000
200.0000000000000000
200.0000000000000000
200.0000000000000000
200.0000000000000000
200.0000000000000000
200.0000000000000000
200.0000000000000000
200.0000000000000000
200.0000000000000000
200.0000000000000000
200.0000000000000000
200.0000000000000000
200.0000000000000000
200.0000000000000000
200.0000000000000000
200.0000000000000000
200.0000000000000000
200.0000000000000000
200.0000000000000000
200.0000000000000000
200.0000000000000000
200.0000000000000000
200.0000000000000000
200.0000000000000000
200.0000000000000000
200.0000000000000000
200.0000000000000000
200.0000000000000000
200.0000000000000000
200.0000000000000000
200.0000000000000000
200.0000000000000000
200.0000000000000000
200.0000000000000000
200.0000000000000000
200.0000000000000000
200.0000000000000000
200.0000000000000000
200.0000000000000000
200.0000000000000000
200.0000000000000000
200.0000000000000000
200.0000000000000000
200.0000000000000000
200.0000000000000000
200.0000000000000000
200.0000000000000000
200.0000000000000000
200.0000000000000000
200.0000000000000000
200.0000000000000000
200.0000000000000000
200.0000000000000000
200.0000000000000000
200.0000000000000000
200.0000000000000000
200.0000000000000000
200.0000000000000000
200.0000000000000000
200.0000000000000000
200.0000000000000000
200.0000000000000000
200.0000000000000000
200.0000000000000000
200.0000000000000000
200.0000000000000000
200.0000000000000000
200.0000000000000000
200.0000000000000000
200.0000000000000000
200.0000000000000000
200.0000000000000000
200.0000000000000000
200.0000000000000000
200.0000000000000000
200.0000000000000000
200.0000000000000000
200.0000000000000000
200.0000000000000000
200.0000000000000000
200.0000000000000000
200.0000000000000000
200.0000000000000000
200.0000000000000000
200.0000000000000000
200.0000000000000000
200.0000000000000000
200.0000000000000000
200.0000000000000000
200.0000000000000000
200.0000000000000000
200.0000000000000000
200.0000000000000000
200.0000000000000000
200.0000000000000000
200.0000000000000000
200.0000000000000000
200.0000000000000000
200.0000000000000000
200.0000000000000000
200.0000000000000000
200.0000000000000000
200.0000000000000000
200.0000000000000000
200.0000000000000000
200.0000000000000000
200.0000000000000000
200.0000000000000000
200.0000000000000000
200.0000000000000000
200.0000000000000000
200.0000000000000000
200.0000000000000000
200.0000000000000000
200.0000000000000000
200.0000000000000000
200.0000000000000000
200.0000000000000000
200.0000000000000000
200.0000000000000000
200.0000000000000000
200.0000000000000000
200.0000000000000000
200.0000000000000000
200.0000000000000000
200.0000000000000000
200.0000000000000000
200.0000000000000000
200.0000000000000000
200.0000000000000000
200.0000000000000000
200.0000000000000000
200.0000000000000000
200.0000000000000000
200.0000000000000000
200.0000000000000000
200.0000000000000000
200.0000000000000000
200.0000000000000000
200.0000000000000000
200.0000000000000000
200.0000000000000000
200.0000000000000000
200.0000000000000000
200.0000000000000000
200.0000000000000000
200.0000000000000000
200.0000000000000000
200.0000000000000000
200.0000000000000000
200.0000000000000000
200.0000000000000000
200.0000000000000000
200.0000000000000000
200.0000000000000000
200.0000000000000000
200.0000000000000000
200.0000000000000000
200.0000000000000000
200.0000000000000000
200.0000000000000000
200.0000000000000000
200.0000000000000000
200.0000000000000000
200.0000000000000000
200.0000000000000000
200.0000000000000000
200.0000000000000000
200.0000000000000000
200.0000000000000000
200.0000000000000000
200.0000000000000000
200.0000000000000000
200.0000000000000000
200.0000000000000000
200.0000000000000000
200.0000000000000000
200.0000000000000000
200.0000000000000000
200.0000000000000000
200.0000000000000000
200.0000000000000000
200.0000000000000000
200.0000000000000000
200.0000000000000000
200.0000000000000000
200.0000000000000000
200.0000000000000000
200.0000000000000000
200.0000000000000000
200.0000000000000000
200.0000000000000000
200.0000000000000000
200.0000000000000000
200.0000000000000000
200.0000000000000000
200.0000000000000000
200.0000000000000000
200.0000000000000000
200.0000000000000000
200.0000000000000000
200.0000000000000000
200.0000000000000000
200.0000000000000000
200.0000000000000000
200.0000000000000000
200.0000000000000000
200.0000000000000000
200.0000000000000000
200.0000000000000000
200.0000000000000000
200.0000000000000000
200.0000000000000000
200.0000000000000000
200.0000000000000000
200.0000000000000000
200.0000000000000000
200.0000000000000000
200.0000000000000000
200.0000000000000000
200.0000000000000000
200.0000000000000000
200.0000000000000000
200.0000000000000000
200.0000000000000000
200.0000000000000000
200.0000000000000000
200.0000000000000000
200.0000000000000000
200.0000000000000000
200.0000000000000000
200.0000000000000000
200.0000000000000000
200.0000000000000000
200.0000000000000000
200.0000000000000000
200.0000000000000000
200.0000000000000000
200.0000000000000000
200.0000000000000000
200.0000000000000000
200.0000000000000000
200.0000000000000000
200.0000000000000000
200.0000000000000000
200.0000000000000000
200.0000000000000000
200.0000000000000000
200.0000000000000000
200.0000000000000000
200.0000000000000000
200.0000000000000000
200.0000000000000000
200.0000000000000000
200.0000000000000000
200.0000000000000000
200.0000000000000000
200.0000000000000000
200.0000000000000000
200.0000000000000000
200.0000000000000000
200.0000000000000000
200.0000000000000000
200.0000000000000000
200.0000000000000000
200.0000000000000000
200.0000000000000000
200.0000000000000000
200.0000000000000000
200.0000000000000000
200.0000000000000000
200.0000000000000000
200.0000000000000000
200.0000000000000000
200.0000000000000000
200.0000000000000000
200.0000000000000000
200.0000000000000000
200.0000000000000000
200.0000000000000000
200.0000000000000000
200.0000000000000000
200.0000000000000000
200.0000000000000000
200.0000000000000000
200.0000000000000000
200.0000000000000000
200.0000000000000000
200.0000000000000000
200.0000000000000000
200.0000000000000000
200.0000000000000000
200.0000000000000000
200.0000000000000000
200.0000000000000000
200.0000000000000000
200.0000000000000000
200.0000000000000000
200.0000000000000000
200.0000000000000000
200.0000000000000000
200.0000000000000000
200.0000000000000000
200.0000000000000000
200.0000000000000000
200.0000000000000000
200.0000000000000000
200.0000000000000000
200.0000000000000000
200.0000000000000000
200.0000000000000000
200.0000000000000000
200.0000000000000000
200.0000000000000000
200.0000000000000000
200.0000000000000000
200.0000000000000000
200.0000000000000000
200.0000000000000000
200.0000000000000000
200.0000000000000000
200.0000000000000000
200.0000000000000000
200.0000000000000000
200.0000000000000000
200.0000000000000000
200.0000000000000000
200.0000000000000000
200.0000000000000000
200.0000000000000000
200.0000000000000000
200.0000000000000000
200.0000000000000000
200.0000000000000000
200.0000000000000000
200.0000000000000000
200.0000000000000000
200.0000000000000000
200.0000000000000000
200.0000000000000000
200.0000000000000000
200.0000000000000000
200.0000000000000000
200.0000000000000000
200.0000000000000000
200.0000000000000000
200.0000000000000000
200.0000000000000000
200.0000000000000000
200.0000000000000000
200.0000000000000000
200.0000000000000000
200.0000000000000000
200.0000000000000000
200.0000000000000000
200.0000000000000000
200.0000000000000000
200.0000000000000000
200.0000000000000000
200.0000000000000000
200.0000000000000000
200.0000000000000000
200.0000000000000000
200.0000000000000000
200.0000000000000000
200.0000000000000000
200.0000000000000000
200.0000000000000000
200.0000000000000000
200.0000000000000000
200.0000000000000000
200.0000000000000000
200.0000000000000000
200.0000000000000000
200.0000000000000000
200.0000000000000000
200.0000000000000000
200.0000000000000000
200.0000000000000000
200.0000000000000000
200.0000000000000000
200.0000000000000000
200.0000000000000000
200.0000000000000000
200.0000000000000000
200.0000000000000000
200.0000000000000000
200.0000000000000000
200.0000000000000000
200.0000000000000000
200.0000000000000000
200.0000000000000000
200.0000000000000000
200.0000000000000000
200.0000000000000000
200.0000000000000000
200.0000000000000000
200.0000000000000000
200.0000000000000000
200.0000000000000000
200.0000000000000000
200.0000000000000000
200.0000000000000000
200.0000000000000000
200.0000000000000000
200.0000000000000000
200.0000000000000000
200.0000000000000000
200.0000000000000000
200.0000000000000000
200.0000000000000000
200.0000000000000000
200.0000000000000000
200.0000000000000000
200.0000000000000000
200.0000000000000000
200.0000000000000000
200.0000000000000000
200.0000000000000000
200.0000000000000000
200.0000000000000000
200.0000000000000000
200.0000000000000000
200.0000000000000000
200.0000000000000000
200.0000000000000000
200.0000000000000000
200.0000000000000000
200.0000000000000000
200.0000000000000000
200.0000000000000000
200.0000000000000000
200.0000000000000000
200.0000000000000000
200.0000000000000000
200.0000000000000000
200.0000000000000000
200.0000000000000000
200.0000000000000000
200.0000000000000000
200.0000000000000000
200.0000000000000000
200.0000000000000000
200.0000000000000000
200.0000000000000000
200.0000000000000000
200.0000000000000000
200.0000000000000000
200.0000000000000000
200.0000000000000000
200.0000000000000000
200.0000000000000000
200.0000000000000000
200.0000000000000000
200.0000000000000000
200.0000000000000000
200.0000000000000000
200.0000000000000000
200.0000000000000000
200.0000000000000000
200.0000000000000000
200.0000000000000000
200.0000000000000000
200.0000000000000000
200.0000000000000000
200.0000000000000000
200.0000000000000000
200.0000000000000000
200.0000000000000000
200.0000000000000000
200.0000000000000000
200.0000000000000000
200.0000000000000000
200.0000000000000000
200.0000000000000000
200.0000000000000000
200.0000000000000000
200.0000000000000000
200.0000000000000000
200.0000000000000000
200.0000000000000000
200.0000000000000000
200.0000000000000000
200.0000000000000000
200.0000000000000000
200.0000000000000000
200.0000000000000000
200.0000000000000000
200.0000000000000000
200.0000000000000000
200.0000000000000000
200.0000000000000000
200.0000000000000000
200.0000000000000000
200.0000000000000000
200.0000000000000000
200.0000000000000000
200.0000000000000000
200.0000000000000000
200.0000000000000000
200.0000000000000000
200.0000000000000000
200.0000000000000000
200.0000000000000000
200.0000000000000000
200.0000000000000000
200.0000000000000000
200.0000000000000000
200.0000000000000000
200.0000000000000000
200.0000000000000000
200.0000000000000000
200.0000000000000000
200.0000000000000000
200.0000000000000000
200.0000000000000000
200.0000000000000000
200.0000000000000000
200.0000000000000000
200.0000000000000000
200.0000000000000000
200.0000000000000000
200.0000000000000000
200.0000000000000000
200.0000000000000000
200.0000000000000000
200.0000000000000000
200.0000000000000000
200.0000000000000000
200.0000000000000000
200.0000000000000000
200.0000000000000000
200.0000000000000000
200.0000000000000000
200.0000000000000000
200.0000000000000000
200.0000000000000000
200.0000000000000000
200.0000000000000000
200.0000000000000000
200.0000000000000000
200.0000000000000000
200.0000000000000000
200.0000000000000000
200.0000000000000000
200.0000000000000000
200.0000000000000000
200.0000000000000000
200.0000000000000000
200.0000000000000000
200.0000000000000000
200.0000000000000000
200.0000000000000000
200.0000000000000000
200.0000000000000000
200.0000000000000000
200.0000000000000000
200.0000000000000000
200.0000000000000000
200.0000000000000000
200.0000000000000000
200.0000000000000000
200.0000000000000000
200.0000000000000000
200.0000000000000000
200.0000000000000000
200.0000000000000000
200.0000000000000000
200.0000000000000000
200.0000000000000000
200.0000000000000000
200.0000000000000000
200.0000000000000000
200.0000000000000000
200.0000000000000000
200.0000000000000000
200.0000000000000000
200.0000000000000000
200.0000000000000000
200.0000000000000000
200.0000000000000000
200.0000000000000000
200.0000000000000000
200.0000000000000000
200.0000000000000000
200.0000000000000000
200.0000000000000000
200.0000000000000000
200.0000000000000000
200.0000000000000000
200.0000000000000000
200.0000000000000000
200.0000000000000000
200.0000000000000000
200.0000000000000000
200.0000000000000000
200.0000000000000000
200.0000000000000000
200.0000000000000000
200.0000000000000000
200.0000000000000000
200.0000000000000000
200.0000000000000000
200.0000000000000000
200.0000000000000000
200.0000000000000000
200.0000000000000000
200.0000000000000000
200.0000000000000000
200.0000000000000000
200.0000000000000000
200.0000000000000000
200.0000000000000000
200.0000000000000000
200.0000000000000000
200.0000000000000000
200.0000000000000000
200.0000000000000000
200.0000000000000000
200.0000000000000000
200.0000000000000000
200.0000000000000000
200.0000000000000000
200.0000000000000000
200.0000000000000000
200.0000000000000000
200.0000000000000000
200.0000000000000000
200.0000000000000000
200.0000000000000000
200.0000000000000000
200.0000000000000000
200.0000000000000000
200.0000000000000000
200.0000000000000000
200.0000000000000000
200.0000000000000000
200.0000000000000000
200.0000000000000000
200.0000000000000000
200.0000000000000000
200.0000000000000000
200.0000000000000000
200.0000000000000000
200.0000000000000000
200.0000000000000000
200.0000000000000000
200.0000000000000000
200.0000000000000000
200.0000000000000000
200.0000000000000000
200.0000000000000000
200.0000000000000000
200.0000000000000000
200.0000000000000000
200.0000000000000000
200.0000000000000000
200.0000000000000000
200.0000000000000000
200.0000000000000000
200.0000000000000000
200.0000000000000000
200.0000000000000000
200.0000000000000000
200.0000000000000000
200.0000000000000000
200.0000000000000000
200.0000000000000000
200.0000000000000000
200.0000000000000000
200.0000000000000000
200.0000000000000000
200.0000000000000000
200.0000000000000000
200.0000000000000000
200.0000000000000000
200.0000000000000000
200.0000000000000000
200.0000000000000000
200.0000000000000000
200.0000000000000000
200.0000000000000000
200.0000000000000000
200.0000000000000000
200.0000000000000000
200.0000000000000000
200.0000000000000000
200.0000000000000000
200.0000000000000000
200.0000000000000000
200.0000000000000000
200.0000000000000000
200.0000000000000000
200.0000000000000000
200.0000000000000000
200.0000000000000000
200.0000000000000000
200.0000000000000000
200.0000000000000000
200.0000000000000000
200.0000000000000000
200.0000000000000000
200.0000000000000000
200.0000000000000000
200.0000000000000000
200.0000000000000000
200.0000000000000000
200.0000000000000000
200.0000000000000000
200.0000000000000000
200.0000000000000000
200.0000000000000000
200.0000000000000000
200.0000000000000000
200.0000000000000000
200.0000000000000000
200.0000000000000000
200.0000000000000000
200.0000000000000000
200.0000000000000000
200.0000000000000000
200.0000000000000000
200.0000000000000000
200.0000000000000000
200.0000000000000000
200.0000000000000000
200.0000000000000000
200.0000000000000000
200.0000000000000000
200.0000000000000000
200.0000000000000000
200.0000000000000000
200.0000000000000000
200.0000000000000000
200.0000000000000000
200.0000000000000000
200.0000000000000000
200.0000000000000000
200.0000000000000000
200.0000000000000000
200.0000000000000000
200.0000000000000000
200.0000000000000000
200.0000000000000000
200.0000000000000000
200.0000000000000000
200.0000000000000000
200.0000000000000000
200.0000000000000000
200.0000000000000000
200.0000000000000000
200.0000000000000000
200.0000000000000000
200.0000000000000000
200.0000000000000000
200.0000000000000000
200.0000000000000000
200.0000000000000000
200.0000000000000000
200.0000000000000000
200.0000000000000000
200.0000000000000000
200.0000000000000000
200.0000000000000000
200.0000000000000000
200.0000000000000000
200.0000000000000000
200.0000000000000000
200.0000000000000000
200.0000000000000000
200.0000000000000000
200.0000000000000000
200.0000000000000000
200.0000000000000000
200.0000000000000000
200.0000000000000000
200.0000000000000000
200.0000000000000000
200.0000000000000000
200.0000000000000000
200.0000000000000000
200.0000000000000000
200.0000000000000000
200.0000000000000000
200.0000000000000000
200.0000000000000000
200.0000000000000000
200.0000000000000000
200.0000000000000000
200.0000000000000000
200.0000000000000000
200.0000000000000000
200.0000000000000000
200.0000000000000000
200.0000000000000000
200.0000000000000000
200.0000000000000000
200.0000000000000000
200.0000000000000000
200.0000000000000000
200.0000000000000000
200.0000000000000000
200.0000000000000000
200.0000000000000000
200.0000000000000000
200.0000000000000000
200.0000000000000000
200.0000000000000000
200.0000000000000000
200.0000000000000000
200.0000000000000000
200.0000000000000000
200.0000000000000000
200.0000000000000000
200.0000000000000000
200.0000000000000000
200.0000000000000000
200.0000000000000000
200.0000000000000000
200.0000000000000000
200.0000000000000000
200.0000000000000000
200.0000000000000000
200.0000000000000000
200.0000000000000000
200.0000000000000000
200.0000000000000000
200.0000000000000000
200.0000000000000000
200.0000000000000000
200.0000000000000000
200.0000000000000000
200.0000000000000000
200.0000000000000000
200.0000000000000000
200.0000000000000000
200.0000000000000000
200.0000000000000000
200.0000000000000000
200.0000000000000000
200.0000000000000000
200.0000000000000000
200.0000000000000000
200.0000000000000000
200.0000000000000000
200.0000000000000000
200.0000000000000000
200.0000000000000000
200.0000000000000000
200.0000000000000000
200.0000000000000000
200.0000000000000000
200.0000000000000000
200.0000000000000000
200.0000000000000000
200.0000000000000000
200.0000000000000000
200.0000000000000000
200.0000000000000000
200.0000000000000000
200.0000000000000000
200.0000000000000000
200.0000000000000000
200.0000000000000000
200.0000000000000000
200.0000000000000000
200.0000000000000000
200.0000000000000000
200.0000000000000000
200.0000000000000000
200.0000000000000000
200.0000000000000000
200.0000000000000000
200.0000000000000000
200.0000000000000000
200.0000000000000000
200.0000000000000000
200.0000000000000000
200.0000000000000000
200.0000000000000000
200.0000000000000000
200.0000000000000000
200.0000000000000000
200.0000000000000000
200.0000000000000000
200.0000000000000000
200.0000000000000000
200.0000000000000000
200.0000000000000000
200.0000000000000000
200.0000000000000000
200.0000000000000000
200.0000000000000000
200.0000000000000000
200.0000000000000000
200.0000000000000000
200.0000000000000000
200.0000000000000000
200.0000000000000000
200.0000000000000000
200.0000000000000000
200.0000000000000000
200.0000000000000000
200.0000000000000000
200.0000000000000000
200.0000000000000000
200.0000000000000000
200.0000000000000000
200.0000000000000000
200.0000000000000000
200.0000000000000000
200.0000000000000000
200.0000000000000000
200.0000000000000000
399900.0000000000000000
