301 1
200.0000000000000000
200.0000000000000000
200.0000000000000000
200.0000000000000000
200.0000000000000000
200.0000000000000000
200.0000000000000000
200.0000000000000000
200.0000000000000000
200.0000000000000000
200.0000000000000000
200.0000000000000000
200.0000000000000000
200.0000000000000000
200.0000000000000000
200.0000000000000000
200.0000000000000000
200.0000000000000000
200.0000000000000000
200.0000000000000000
200.0000000000000000
200.0000000000000000
200.0000000000000000
200.0000000000000000
200.0000000000000000
200.0000000000000000
200.0000000000000000
200.0000000000000000
200.0000000000000000
200.0000000000000000
200.0000000000000000
200.0000000000000000
200.0000000000000000
200.0000000000000000
200.0000000000000000
200.0000000000000000
200.0000000000000000
200.0000000000000000
200.0000000000000000
200.0000000000000000
200.0000000000000000
200.0000000000000000
200.0000000000000000
200.0000000000000000
200.0000000000000000
200.0000000000000000
200.0000000000000000
200.0000000000000000
200.0000000000000000
200.0000000000000000
200.0000000000000000
200.0000000000000000
200.0000000000000000
200.0000000000000000
200.0000000000000000
200.0000000000000000
200.0000000000000000
200.0000000000000000
200.0000000000000000
200.0000000000000000
200.0000000000000000
200.0000000000000000
200.0000000000000000
200.0000000000000000
200.0000000000000000
200.0000000000000000
200.0000000000000000
200.0000000000000000
200.0000000000000000
200.0000000000000000
200.0000000000000000
200.0000000000000000
200.0000000000000000
200.0000000000000000
200.0000000000000000
200.0000000000000000
200.0000000000000000
200.0000000000000000
200.0000000000000000
200.0000000000000000
200.0000000000000000
200.0000000000000000
200.0000000000000000
200.0000000000000000
200.0000000000000000
200.0000000000000000
200.0000000000000000
200.0000000000000000
200.0000000000000000
200.0000000000000000
200.0000000000000000
200.0000000000000000
200.0000000000000000
200.0000000000000000
200.0000000000000000
200.0000000000000000
200.0000000000000000
200.0000000000000000
200.0000000000000000
200.0000000000000000
200.0000000000000000
200.0000000000000000
200.0000000000000000
200.0000000000000000
200.0000000000000000
200.0000000000000000
200.0000000000000000
200.0000000000000000
200.0000000000000000
200.0000000000000000
200.0000000000000000
200.0000000000000000
200.0000000000000000
200.0000000000000000
200.0000000000000000
200.0000000000000000
200.0000000000000000
200.0000000000000000
200.0000000000000000
200.0000000000000000
200.0000000000000000
200.0000000000000000
200.0000000000000000
200.0000000000000000
200.0000000000000000
200.0000000000000000
200.0000000000000000
200.0000000000000000
200.0000000000000000
200.0000000000000000
200.0000000000000000
200.0000000000000000
200.0000000000000000
200.0000000000000000
200.0000000000000000
200.0000000000000000
200.0000000000000000
200.0000000000000000
200.0000000000000000
200.0000000000000000
200.0000000000000000
200.0000000000000000
200.0000000000000000
200.0000000000000000
200.0000000000000000
200.0000000000000000
200.0000000000000000
200.0000000000000000
200.0000000000000000
200.0000000000000000
200.0000000000000000
200.0000000000000000
200.0000000000000000
200.0000000000000000
200.0000000000000000
200.0000000000000000
200.0000000000000000
200.0000000000000000
200.0000000000000000
200.0000000000000000
200.0000000000000000
200.0000000000000000
200.0000000000000000
200.0000000000000000
200.0000000000000000
200.0000000000000000
200.0000000000000000
200.0000000000000000
200.0000000000000000
200.0000000000000000
200.0000000000000000
200.0000000000000000
200.0000000000000000
200.0000000000000000
200.0000000000000000
200.0000000000000000
200.0000000000000000
200.0000000000000000
200.0000000000000000
200.0000000000000000
200.0000000000000000
200.0000000000000000
200.0000000000000000
200.0000000000000000
200.0000000000000000
200.0000000000000000
200.0000000000000000
200.0000000000000000
200.0000000000000000
200.0000000000000000
200.0000000000000000
200.0000000000000000
200.0000000000000000
200.0000000000000000
200.0000000000000000
200.0000000000000000
200.0000000000000000
200.0000000000000000
200.0000000000000000
200.0000000000000000
200.0000000000000000
200.0000000000000000
200.0000000000000000
200.0000000000000000
200.0000000000000000
200.0000000000000000
200.0000000000000000
200.0000000000000000
200.0000000000000000
200.0000000000000000
200.0000000000000000
200.0000000000000000
200.0000000000000000
200.0000000000000000
200.0000000000000000
200.0000000000000000
200.0000000000000000
200.0000000000000000
200.0000000000000000
200.0000000000000000
200.0000000000000000
200.0000000000000000
200.0000000000000000
200.0000000000000000
200.0000000000000000
200.0000000000000000
200.0000000000000000
200.0000000000000000
200.0000000000000000
200.0000000000000000
200.0000000000000000
200.0000000000000000
200.0000000000000000
200.0000000000000000
200.0000000000000000
200.0000000000000000
200.0000000000000000
200.0000000000000000
200.0000000000000000
200.0000000000000000
200.0000000000000000
200.0000000000000000
200.0000000000000000
200.0000000000000000
200.0000000000000000
200.0000000000000000
200.0000000000000000
200.0000000000000000
200.0000000000000000
200.0000000000000000
200.0000000000000000
200.0000000000000000
200.0000000000000000
200.0000000000000000
200.0000000000000000
200.0000000000000000
200.0000000000000000
200.0000000000000000
200.0000000000000000
200.0000000000000000
200.0000000000000000
200.0000000000000000
200.0000000000000000
200.0000000000000000
200.0000000000000000
200.0000000000000000
200.0000000000000000
200.0000000000000000
200.0000000000000000
200.0000000000000000
200.0000000000000000
200.0000000000000000
200.0000000000000000
200.0000000000000000
200.0000000000000000
200.0000000000000000
200.0000000000000000
200.0000000000000000
200.0000000000000000
200.0000000000000000
200.0000000000000000
200.0000000000000000
200.0000000000000000
200.0000000000000000
200.0000000000000000
200.0000000000000000
200.0000000000000000
200.0000000000000000
200.0000000000000000
200.0000000000000000
200.0000000000000000
200.0000000000000000
200.0000000000000000
200.0000000000000000
200.0000000000000000
200.0000000000000000
200.0000000000000000
200.0000000000000000
200.0000000000000000
200.0000000000000000
59900.0000000000000000
