1501 3001 4501
1 1 1.0000000000000000
1 1501 1.0000000000000000
2 2 1.0000000000000000
2 1502 1.0000000000000000
3 3 1.0000000000000000
3 1503 1.0000000000000000
4 4 1.0000000000000000
4 1504 1.0000000000000000
5 5 1.0000000000000000
5 1505 1.0000000000000000
6 6 1.0000000000000000
6 1506 1.0000000000000000
7 7 1.0000000000000000
7 1507 1.0000000000000000
8 8 1.0000000000000000
8 1508 1.0000000000000000
9 9 1.0000000000000000
9 1509 1.0000000000000000
10 10 1.0000000000000000
10 1510 1.0000000000000000
11 11 1.0000000000000000
11 1511 1.0000000000000000
12 12 1.0000000000000000
12 1512 1.0000000000000000
13 13 1.0000000000000000
13 1513 1.0000000000000000
14 14 1.0000000000000000
14 1514 1.0000000000000000
15 15 1.0000000000000000
15 1515 1.0000000000000000
16 16 1.0000000000000000
16 1516 1.0000000000000000
17 17 1.0000000000000000
17 1517 1.0000000000000000
18 18 1.0000000000000000
18 1518 1.0000000000000000
19 19 1.0000000000000000
19 1519 1.0000000000000000
20 20 1.0000000000000000
20 1520 1.0000000000000000
21 21 1.0000000000000000
21 1521 1.0000000000000000
22 22 1.0000000000000000
22 1522 1.0000000000000000
23 23 1.0000000000000000
23 1523 1.0000000000000000
24 24 1.0000000000000000
24 1524 1.0000000000000000
25 25 1.0000000000000000
25 1525 1.0000000000000000
26 26 1.0000000000000000
26 1526 1.0000000000000000
27 27 1.0000000000000000
27 1527 1.0000000000000000
28 28 1.0000000000000000
28 1528 1.0000000000000000
29 29 1.0000000000000000
29 1529 1.0000000000000000
30 30 1.0000000000000000
30 1530 1.0000000000000000
31 31 1.0000000000000000
31 1531 1.0000000000000000
32 32 1.0000000000000000
32 1532 1.0000000000000000
33 33 1.0000000000000000
33 1533 1.0000000000000000
34 34 1.0000000000000000
34 1534 1.0000000000000000
35 35 1.0000000000000000
35 1535 1.0000000000000000
36 36 1.0000000000000000
36 1536 1.0000000000000000
37 37 1.0000000000000000
37 1537 1.0000000000000000
38 38 1.0000000000000000
38 1538 1.0000000000000000
39 39 1.0000000000000000
39 1539 1.0000000000000000
40 40 1.0000000000000000
40 1540 1.0000000000000000
41 41 1.0000000000000000
41 1541 1.0000000000000000
42 42 1.0000000000000000
42 1542 1.0000000000000000
43 43 1.0000000000000000
43 1543 1.0000000000000000
44 44 1.0000000000000000
44 1544 1.0000000000000000
45 45 1.0000000000000000
45 1545 1.0000000000000000
46 46 1.0000000000000000
46 1546 1.0000000000000000
47 47 1.0000000000000000
47 1547 1.0000000000000000
48 48 1.0000000000000000
48 1548 1.0000000000000000
49 49 1.0000000000000000
49 1549 1.0000000000000000
50 50 1.0000000000000000
50 1550 1.0000000000000000
51 51 1.0000000000000000
51 1551 1.0000000000000000
52 52 1.0000000000000000
52 1552 1.0000000000000000
53 53 1.0000000000000000
53 1553 1.0000000000000000
54 54 1.0000000000000000
54 1554 1.0000000000000000
55 55 1.0000000000000000
55 1555 1.0000000000000000
56 56 1.0000000000000000
56 1556 1.0000000000000000
57 57 1.0000000000000000
57 1557 1.0000000000000000
58 58 1.0000000000000000
58 1558 1.0000000000000000
59 59 1.0000000000000000
59 1559 1.0000000000000000
60 60 1.0000000000000000
60 1560 1.0000000000000000
61 61 1.0000000000000000
61 1561 1.0000000000000000
62 62 1.0000000000000000
62 1562 1.0000000000000000
63 63 1.0000000000000000
63 1563 1.0000000000000000
64 64 1.0000000000000000
64 1564 1.0000000000000000
65 65 1.0000000000000000
65 1565 1.0000000000000000
66 66 1.0000000000000000
66 1566 1.0000000000000000
67 67 1.0000000000000000
67 1567 1.0000000000000000
68 68 1.0000000000000000
68 1568 1.0000000000000000
69 69 1.0000000000000000
69 1569 1.0000000000000000
70 70 1.0000000000000000
70 1570 1.0000000000000000
71 71 1.0000000000000000
71 1571 1.0000000000000000
72 72 1.0000000000000000
72 1572 1.0000000000000000
73 73 1.0000000000000000
73 1573 1.0000000000000000
74 74 1.0000000000000000
74 1574 1.0000000000000000
75 75 1.0000000000000000
75 1575 1.0000000000000000
76 76 1.0000000000000000
76 1576 1.0000000000000000
77 77 1.0000000000000000
77 1577 1.0000000000000000
78 78 1.0000000000000000
78 1578 1.0000000000000000
79 79 1.0000000000000000
79 1579 1.0000000000000000
80 80 1.0000000000000000
80 1580 1.0000000000000000
81 81 1.0000000000000000
81 1581 1.0000000000000000
82 82 1.0000000000000000
82 1582 1.0000000000000000
83 83 1.0000000000000000
83 1583 1.0000000000000000
84 84 1.0000000000000000
84 1584 1.0000000000000000
85 85 1.0000000000000000
85 1585 1.0000000000000000
86 86 1.0000000000000000
86 1586 1.0000000000000000
87 87 1.0000000000000000
87 1587 1.0000000000000000
88 88 1.0000000000000000
88 1588 1.0000000000000000
89 89 1.0000000000000000
89 1589 1.0000000000000000
90 90 1.0000000000000000
90 1590 1.0000000000000000
91 91 1.0000000000000000
91 1591 1.0000000000000000
92 92 1.0000000000000000
92 1592 1.0000000000000000
93 93 1.0000000000000000
93 1593 1.0000000000000000
94 94 1.0000000000000000
94 1594 1.0000000000000000
95 95 1.0000000000000000
95 1595 1.0000000000000000
96 96 1.0000000000000000
96 1596 1.0000000000000000
97 97 1.0000000000000000
97 1597 1.0000000000000000
98 98 1.0000000000000000
98 1598 1.0000000000000000
99 99 1.0000000000000000
99 1599 1.0000000000000000
100 100 1.0000000000000000
100 1600 1.0000000000000000
101 101 1.0000000000000000
101 1601 1.0000000000000000
102 102 1.0000000000000000
102 1602 1.0000000000000000
103 103 1.0000000000000000
103 1603 1.0000000000000000
104 104 1.0000000000000000
104 1604 1.0000000000000000
105 105 1.0000000000000000
105 1605 1.0000000000000000
106 106 1.0000000000000000
106 1606 1.0000000000000000
107 107 1.0000000000000000
107 1607 1.0000000000000000
108 108 1.0000000000000000
108 1608 1.0000000000000000
109 109 1.0000000000000000
109 1609 1.0000000000000000
110 110 1.0000000000000000
110 1610 1.0000000000000000
111 111 1.0000000000000000
111 1611 1.0000000000000000
112 112 1.0000000000000000
112 1612 1.0000000000000000
113 113 1.0000000000000000
113 1613 1.0000000000000000
114 114 1.0000000000000000
114 1614 1.0000000000000000
115 115 1.0000000000000000
115 1615 1.0000000000000000
116 116 1.0000000000000000
116 1616 1.0000000000000000
117 117 1.0000000000000000
117 1617 1.0000000000000000
118 118 1.0000000000000000
118 1618 1.0000000000000000
119 119 1.0000000000000000
119 1619 1.0000000000000000
120 120 1.0000000000000000
120 1620 1.0000000000000000
121 121 1.0000000000000000
121 1621 1.0000000000000000
122 122 1.0000000000000000
122 1622 1.0000000000000000
123 123 1.0000000000000000
123 1623 1.0000000000000000
124 124 1.0000000000000000
124 1624 1.0000000000000000
125 125 1.0000000000000000
125 1625 1.0000000000000000
126 126 1.0000000000000000
126 1626 1.0000000000000000
127 127 1.0000000000000000
127 1627 1.0000000000000000
128 128 1.0000000000000000
128 1628 1.0000000000000000
129 129 1.0000000000000000
129 1629 1.0000000000000000
130 130 1.0000000000000000
130 1630 1.0000000000000000
131 131 1.0000000000000000
131 1631 1.0000000000000000
132 132 1.0000000000000000
132 1632 1.0000000000000000
133 133 1.0000000000000000
133 1633 1.0000000000000000
134 134 1.0000000000000000
134 1634 1.0000000000000000
135 135 1.0000000000000000
135 1635 1.0000000000000000
136 136 1.0000000000000000
136 1636 1.0000000000000000
137 137 1.0000000000000000
137 1637 1.0000000000000000
138 138 1.0000000000000000
138 1638 1.0000000000000000
139 139 1.0000000000000000
139 1639 1.0000000000000000
140 140 1.0000000000000000
140 1640 1.0000000000000000
141 141 1.0000000000000000
141 1641 1.0000000000000000
142 142 1.0000000000000000
142 1642 1.0000000000000000
143 143 1.0000000000000000
143 1643 1.0000000000000000
144 144 1.0000000000000000
144 1644 1.0000000000000000
145 145 1.0000000000000000
145 1645 1.0000000000000000
146 146 1.0000000000000000
146 1646 1.0000000000000000
147 147 1.0000000000000000
147 1647 1.0000000000000000
148 148 1.0000000000000000
148 1648 1.0000000000000000
149 149 1.0000000000000000
149 1649 1.0000000000000000
150 150 1.0000000000000000
150 1650 1.0000000000000000
151 151 1.0000000000000000
151 1651 1.0000000000000000
152 152 1.0000000000000000
152 1652 1.0000000000000000
153 153 1.0000000000000000
153 1653 1.0000000000000000
154 154 1.0000000000000000
154 1654 1.0000000000000000
155 155 1.0000000000000000
155 1655 1.0000000000000000
156 156 1.0000000000000000
156 1656 1.0000000000000000
157 157 1.0000000000000000
157 1657 1.0000000000000000
158 158 1.0000000000000000
158 1658 1.0000000000000000
159 159 1.0000000000000000
159 1659 1.0000000000000000
160 160 1.0000000000000000
160 1660 1.0000000000000000
161 161 1.0000000000000000
161 1661 1.0000000000000000
162 162 1.0000000000000000
162 1662 1.0000000000000000
163 163 1.0000000000000000
163 1663 1.0000000000000000
164 164 1.0000000000000000
164 1664 1.0000000000000000
165 165 1.0000000000000000
165 1665 1.0000000000000000
166 166 1.0000000000000000
166 1666 1.0000000000000000
167 167 1.0000000000000000
167 1667 1.0000000000000000
168 168 1.0000000000000000
168 1668 1.0000000000000000
169 169 1.0000000000000000
169 1669 1.0000000000000000
170 170 1.0000000000000000
170 1670 1.0000000000000000
171 171 1.0000000000000000
171 1671 1.0000000000000000
172 172 1.0000000000000000
172 1672 1.0000000000000000
173 173 1.0000000000000000
173 1673 1.0000000000000000
174 174 1.0000000000000000
174 1674 1.0000000000000000
175 175 1.0000000000000000
175 1675 1.0000000000000000
176 176 1.0000000000000000
176 1676 1.0000000000000000
177 177 1.0000000000000000
177 1677 1.0000000000000000
178 178 1.0000000000000000
178 1678 1.0000000000000000
179 179 1.0000000000000000
179 1679 1.0000000000000000
180 180 1.0000000000000000
180 1680 1.0000000000000000
181 181 1.0000000000000000
181 1681 1.0000000000000000
182 182 1.0000000000000000
182 1682 1.0000000000000000
183 183 1.0000000000000000
183 1683 1.0000000000000000
184 184 1.0000000000000000
184 1684 1.0000000000000000
185 185 1.0000000000000000
185 1685 1.0000000000000000
186 186 1.0000000000000000
186 1686 1.0000000000000000
187 187 1.0000000000000000
187 1687 1.0000000000000000
188 188 1.0000000000000000
188 1688 1.0000000000000000
189 189 1.0000000000000000
189 1689 1.0000000000000000
190 190 1.0000000000000000
190 1690 1.0000000000000000
191 191 1.0000000000000000
191 1691 1.0000000000000000
192 192 1.0000000000000000
192 1692 1.0000000000000000
193 193 1.0000000000000000
193 1693 1.0000000000000000
194 194 1.0000000000000000
194 1694 1.0000000000000000
195 195 1.0000000000000000
195 1695 1.0000000000000000
196 196 1.0000000000000000
196 1696 1.0000000000000000
197 197 1.0000000000000000
197 1697 1.0000000000000000
198 198 1.0000000000000000
198 1698 1.0000000000000000
199 199 1.0000000000000000
199 1699 1.0000000000000000
200 200 1.0000000000000000
200 1700 1.0000000000000000
201 201 1.0000000000000000
201 1701 1.0000000000000000
202 202 1.0000000000000000
202 1702 1.0000000000000000
203 203 1.0000000000000000
203 1703 1.0000000000000000
204 204 1.0000000000000000
204 1704 1.0000000000000000
205 205 1.0000000000000000
205 1705 1.0000000000000000
206 206 1.0000000000000000
206 1706 1.0000000000000000
207 207 1.0000000000000000
207 1707 1.0000000000000000
208 208 1.0000000000000000
208 1708 1.0000000000000000
209 209 1.0000000000000000
209 1709 1.0000000000000000
210 210 1.0000000000000000
210 1710 1.0000000000000000
211 211 1.0000000000000000
211 1711 1.0000000000000000
212 212 1.0000000000000000
212 1712 1.0000000000000000
213 213 1.0000000000000000
213 1713 1.0000000000000000
214 214 1.0000000000000000
214 1714 1.0000000000000000
215 215 1.0000000000000000
215 1715 1.0000000000000000
216 216 1.0000000000000000
216 1716 1.0000000000000000
217 217 1.0000000000000000
217 1717 1.0000000000000000
218 218 1.0000000000000000
218 1718 1.0000000000000000
219 219 1.0000000000000000
219 1719 1.0000000000000000
220 220 1.0000000000000000
220 1720 1.0000000000000000
221 221 1.0000000000000000
221 1721 1.0000000000000000
222 222 1.0000000000000000
222 1722 1.0000000000000000
223 223 1.0000000000000000
223 1723 1.0000000000000000
224 224 1.0000000000000000
224 1724 1.0000000000000000
225 225 1.0000000000000000
225 1725 1.0000000000000000
226 226 1.0000000000000000
226 1726 1.0000000000000000
227 227 1.0000000000000000
227 1727 1.0000000000000000
228 228 1.0000000000000000
228 1728 1.0000000000000000
229 229 1.0000000000000000
229 1729 1.0000000000000000
230 230 1.0000000000000000
230 1730 1.0000000000000000
231 231 1.0000000000000000
231 1731 1.0000000000000000
232 232 1.0000000000000000
232 1732 1.0000000000000000
233 233 1.0000000000000000
233 1733 1.0000000000000000
234 234 1.0000000000000000
234 1734 1.0000000000000000
235 235 1.0000000000000000
235 1735 1.0000000000000000
236 236 1.0000000000000000
236 1736 1.0000000000000000
237 237 1.0000000000000000
237 1737 1.0000000000000000
238 238 1.0000000000000000
238 1738 1.0000000000000000
239 239 1.0000000000000000
239 1739 1.0000000000000000
240 240 1.0000000000000000
240 1740 1.0000000000000000
241 241 1.0000000000000000
241 1741 1.0000000000000000
242 242 1.0000000000000000
242 1742 1.0000000000000000
243 243 1.0000000000000000
243 1743 1.0000000000000000
244 244 1.0000000000000000
244 1744 1.0000000000000000
245 245 1.0000000000000000
245 1745 1.0000000000000000
246 246 1.0000000000000000
246 1746 1.0000000000000000
247 247 1.0000000000000000
247 1747 1.0000000000000000
248 248 1.0000000000000000
248 1748 1.0000000000000000
249 249 1.0000000000000000
249 1749 1.0000000000000000
250 250 1.0000000000000000
250 1750 1.0000000000000000
251 251 1.0000000000000000
251 1751 1.0000000000000000
252 252 1.0000000000000000
252 1752 1.0000000000000000
253 253 1.0000000000000000
253 1753 1.0000000000000000
254 254 1.0000000000000000
254 1754 1.0000000000000000
255 255 1.0000000000000000
255 1755 1.0000000000000000
256 256 1.0000000000000000
256 1756 1.0000000000000000
257 257 1.0000000000000000
257 1757 1.0000000000000000
258 258 1.0000000000000000
258 1758 1.0000000000000000
259 259 1.0000000000000000
259 1759 1.0000000000000000
260 260 1.0000000000000000
260 1760 1.0000000000000000
261 261 1.0000000000000000
261 1761 1.0000000000000000
262 262 1.0000000000000000
262 1762 1.0000000000000000
263 263 1.0000000000000000
263 1763 1.0000000000000000
264 264 1.0000000000000000
264 1764 1.0000000000000000
265 265 1.0000000000000000
265 1765 1.0000000000000000
266 266 1.0000000000000000
266 1766 1.0000000000000000
267 267 1.0000000000000000
267 1767 1.0000000000000000
268 268 1.0000000000000000
268 1768 1.0000000000000000
269 269 1.0000000000000000
269 1769 1.0000000000000000
270 270 1.0000000000000000
270 1770 1.0000000000000000
271 271 1.0000000000000000
271 1771 1.0000000000000000
272 272 1.0000000000000000
272 1772 1.0000000000000000
273 273 1.0000000000000000
273 1773 1.0000000000000000
274 274 1.0000000000000000
274 1774 1.0000000000000000
275 275 1.0000000000000000
275 1775 1.0000000000000000
276 276 1.0000000000000000
276 1776 1.0000000000000000
277 277 1.0000000000000000
277 1777 1.0000000000000000
278 278 1.0000000000000000
278 1778 1.0000000000000000
279 279 1.0000000000000000
279 1779 1.0000000000000000
280 280 1.0000000000000000
280 1780 1.0000000000000000
281 281 1.0000000000000000
281 1781 1.0000000000000000
282 282 1.0000000000000000
282 1782 1.0000000000000000
283 283 1.0000000000000000
283 1783 1.0000000000000000
284 284 1.0000000000000000
284 1784 1.0000000000000000
285 285 1.0000000000000000
285 1785 1.0000000000000000
286 286 1.0000000000000000
286 1786 1.0000000000000000
287 287 1.0000000000000000
287 1787 1.0000000000000000
288 288 1.0000000000000000
288 1788 1.0000000000000000
289 289 1.0000000000000000
289 1789 1.0000000000000000
290 290 1.0000000000000000
290 1790 1.0000000000000000
291 291 1.0000000000000000
291 1791 1.0000000000000000
292 292 1.0000000000000000
292 1792 1.0000000000000000
293 293 1.0000000000000000
293 1793 1.0000000000000000
294 294 1.0000000000000000
294 1794 1.0000000000000000
295 295 1.0000000000000000
295 1795 1.0000000000000000
296 296 1.0000000000000000
296 1796 1.0000000000000000
297 297 1.0000000000000000
297 1797 1.0000000000000000
298 298 1.0000000000000000
298 1798 1.0000000000000000
299 299 1.0000000000000000
299 1799 1.0000000000000000
300 300 1.0000000000000000
300 1800 1.0000000000000000
301 301 1.0000000000000000
301 1801 1.0000000000000000
302 302 1.0000000000000000
302 1802 1.0000000000000000
303 303 1.0000000000000000
303 1803 1.0000000000000000
304 304 1.0000000000000000
304 1804 1.0000000000000000
305 305 1.0000000000000000
305 1805 1.0000000000000000
306 306 1.0000000000000000
306 1806 1.0000000000000000
307 307 1.0000000000000000
307 1807 1.0000000000000000
308 308 1.0000000000000000
308 1808 1.0000000000000000
309 309 1.0000000000000000
309 1809 1.0000000000000000
310 310 1.0000000000000000
310 1810 1.0000000000000000
311 311 1.0000000000000000
311 1811 1.0000000000000000
312 312 1.0000000000000000
312 1812 1.0000000000000000
313 313 1.0000000000000000
313 1813 1.0000000000000000
314 314 1.0000000000000000
314 1814 1.0000000000000000
315 315 1.0000000000000000
315 1815 1.0000000000000000
316 316 1.0000000000000000
316 1816 1.0000000000000000
317 317 1.0000000000000000
317 1817 1.0000000000000000
318 318 1.0000000000000000
318 1818 1.0000000000000000
319 319 1.0000000000000000
319 1819 1.0000000000000000
320 320 1.0000000000000000
320 1820 1.0000000000000000
321 321 1.0000000000000000
321 1821 1.0000000000000000
322 322 1.0000000000000000
322 1822 1.0000000000000000
323 323 1.0000000000000000
323 1823 1.0000000000000000
324 324 1.0000000000000000
324 1824 1.0000000000000000
325 325 1.0000000000000000
325 1825 1.0000000000000000
326 326 1.0000000000000000
326 1826 1.0000000000000000
327 327 1.0000000000000000
327 1827 1.0000000000000000
328 328 1.0000000000000000
328 1828 1.0000000000000000
329 329 1.0000000000000000
329 1829 1.0000000000000000
330 330 1.0000000000000000
330 1830 1.0000000000000000
331 331 1.0000000000000000
331 1831 1.0000000000000000
332 332 1.0000000000000000
332 1832 1.0000000000000000
333 333 1.0000000000000000
333 1833 1.0000000000000000
334 334 1.0000000000000000
334 1834 1.0000000000000000
335 335 1.0000000000000000
335 1835 1.0000000000000000
336 336 1.0000000000000000
336 1836 1.0000000000000000
337 337 1.0000000000000000
337 1837 1.0000000000000000
338 338 1.0000000000000000
338 1838 1.0000000000000000
339 339 1.0000000000000000
339 1839 1.0000000000000000
340 340 1.0000000000000000
340 1840 1.0000000000000000
341 341 1.0000000000000000
341 1841 1.0000000000000000
342 342 1.0000000000000000
342 1842 1.0000000000000000
343 343 1.0000000000000000
343 1843 1.0000000000000000
344 344 1.0000000000000000
344 1844 1.0000000000000000
345 345 1.0000000000000000
345 1845 1.0000000000000000
346 346 1.0000000000000000
346 1846 1.0000000000000000
347 347 1.0000000000000000
347 1847 1.0000000000000000
348 348 1.0000000000000000
348 1848 1.0000000000000000
349 349 1.0000000000000000
349 1849 1.0000000000000000
350 350 1.0000000000000000
350 1850 1.0000000000000000
351 351 1.0000000000000000
351 1851 1.0000000000000000
352 352 1.0000000000000000
352 1852 1.0000000000000000
353 353 1.0000000000000000
353 1853 1.0000000000000000
354 354 1.0000000000000000
354 1854 1.0000000000000000
355 355 1.0000000000000000
355 1855 1.0000000000000000
356 356 1.0000000000000000
356 1856 1.0000000000000000
357 357 1.0000000000000000
357 1857 1.0000000000000000
358 358 1.0000000000000000
358 1858 1.0000000000000000
359 359 1.0000000000000000
359 1859 1.0000000000000000
360 360 1.0000000000000000
360 1860 1.0000000000000000
361 361 1.0000000000000000
361 1861 1.0000000000000000
362 362 1.0000000000000000
362 1862 1.0000000000000000
363 363 1.0000000000000000
363 1863 1.0000000000000000
364 364 1.0000000000000000
364 1864 1.0000000000000000
365 365 1.0000000000000000
365 1865 1.0000000000000000
366 366 1.0000000000000000
366 1866 1.0000000000000000
367 367 1.0000000000000000
367 1867 1.0000000000000000
368 368 1.0000000000000000
368 1868 1.0000000000000000
369 369 1.0000000000000000
369 1869 1.0000000000000000
370 370 1.0000000000000000
370 1870 1.0000000000000000
371 371 1.0000000000000000
371 1871 1.0000000000000000
372 372 1.0000000000000000
372 1872 1.0000000000000000
373 373 1.0000000000000000
373 1873 1.0000000000000000
374 374 1.0000000000000000
374 1874 1.0000000000000000
375 375 1.0000000000000000
375 1875 1.0000000000000000
376 376 1.0000000000000000
376 1876 1.0000000000000000
377 377 1.0000000000000000
377 1877 1.0000000000000000
378 378 1.0000000000000000
378 1878 1.0000000000000000
379 379 1.0000000000000000
379 1879 1.0000000000000000
380 380 1.0000000000000000
380 1880 1.0000000000000000
381 381 1.0000000000000000
381 1881 1.0000000000000000
382 382 1.0000000000000000
382 1882 1.0000000000000000
383 383 1.0000000000000000
383 1883 1.0000000000000000
384 384 1.0000000000000000
384 1884 1.0000000000000000
385 385 1.0000000000000000
385 1885 1.0000000000000000
386 386 1.0000000000000000
386 1886 1.0000000000000000
387 387 1.0000000000000000
387 1887 1.0000000000000000
388 388 1.0000000000000000
388 1888 1.0000000000000000
389 389 1.0000000000000000
389 1889 1.0000000000000000
390 390 1.0000000000000000
390 1890 1.0000000000000000
391 391 1.0000000000000000
391 1891 1.0000000000000000
392 392 1.0000000000000000
392 1892 1.0000000000000000
393 393 1.0000000000000000
393 1893 1.0000000000000000
394 394 1.0000000000000000
394 1894 1.0000000000000000
395 395 1.0000000000000000
395 1895 1.0000000000000000
396 396 1.0000000000000000
396 1896 1.0000000000000000
397 397 1.0000000000000000
397 1897 1.0000000000000000
398 398 1.0000000000000000
398 1898 1.0000000000000000
399 399 1.0000000000000000
399 1899 1.0000000000000000
400 400 1.0000000000000000
400 1900 1.0000000000000000
401 401 1.0000000000000000
401 1901 1.0000000000000000
402 402 1.0000000000000000
402 1902 1.0000000000000000
403 403 1.0000000000000000
403 1903 1.0000000000000000
404 404 1.0000000000000000
404 1904 1.0000000000000000
405 405 1.0000000000000000
405 1905 1.0000000000000000
406 406 1.0000000000000000
406 1906 1.0000000000000000
407 407 1.0000000000000000
407 1907 1.0000000000000000
408 408 1.0000000000000000
408 1908 1.0000000000000000
409 409 1.0000000000000000
409 1909 1.0000000000000000
410 410 1.0000000000000000
410 1910 1.0000000000000000
411 411 1.0000000000000000
411 1911 1.0000000000000000
412 412 1.0000000000000000
412 1912 1.0000000000000000
413 413 1.0000000000000000
413 1913 1.0000000000000000
414 414 1.0000000000000000
414 1914 1.0000000000000000
415 415 1.0000000000000000
415 1915 1.0000000000000000
416 416 1.0000000000000000
416 1916 1.0000000000000000
417 417 1.0000000000000000
417 1917 1.0000000000000000
418 418 1.0000000000000000
418 1918 1.0000000000000000
419 419 1.0000000000000000
419 1919 1.0000000000000000
420 420 1.0000000000000000
420 1920 1.0000000000000000
421 421 1.0000000000000000
421 1921 1.0000000000000000
422 422 1.0000000000000000
422 1922 1.0000000000000000
423 423 1.0000000000000000
423 1923 1.0000000000000000
424 424 1.0000000000000000
424 1924 1.0000000000000000
425 425 1.0000000000000000
425 1925 1.0000000000000000
426 426 1.0000000000000000
426 1926 1.0000000000000000
427 427 1.0000000000000000
427 1927 1.0000000000000000
428 428 1.0000000000000000
428 1928 1.0000000000000000
429 429 1.0000000000000000
429 1929 1.0000000000000000
430 430 1.0000000000000000
430 1930 1.0000000000000000
431 431 1.0000000000000000
431 1931 1.0000000000000000
432 432 1.0000000000000000
432 1932 1.0000000000000000
433 433 1.0000000000000000
433 1933 1.0000000000000000
434 434 1.0000000000000000
434 1934 1.0000000000000000
435 435 1.0000000000000000
435 1935 1.0000000000000000
436 436 1.0000000000000000
436 1936 1.0000000000000000
437 437 1.0000000000000000
437 1937 1.0000000000000000
438 438 1.0000000000000000
438 1938 1.0000000000000000
439 439 1.0000000000000000
439 1939 1.0000000000000000
440 440 1.0000000000000000
440 1940 1.0000000000000000
441 441 1.0000000000000000
441 1941 1.0000000000000000
442 442 1.0000000000000000
442 1942 1.0000000000000000
443 443 1.0000000000000000
443 1943 1.0000000000000000
444 444 1.0000000000000000
444 1944 1.0000000000000000
445 445 1.0000000000000000
445 1945 1.0000000000000000
446 446 1.0000000000000000
446 1946 1.0000000000000000
447 447 1.0000000000000000
447 1947 1.0000000000000000
448 448 1.0000000000000000
448 1948 1.0000000000000000
449 449 1.0000000000000000
449 1949 1.0000000000000000
450 450 1.0000000000000000
450 1950 1.0000000000000000
451 451 1.0000000000000000
451 1951 1.0000000000000000
452 452 1.0000000000000000
452 1952 1.0000000000000000
453 453 1.0000000000000000
453 1953 1.0000000000000000
454 454 1.0000000000000000
454 1954 1.0000000000000000
455 455 1.0000000000000000
455 1955 1.0000000000000000
456 456 1.0000000000000000
456 1956 1.0000000000000000
457 457 1.0000000000000000
457 1957 1.0000000000000000
458 458 1.0000000000000000
458 1958 1.0000000000000000
459 459 1.0000000000000000
459 1959 1.0000000000000000
460 460 1.0000000000000000
460 1960 1.0000000000000000
461 461 1.0000000000000000
461 1961 1.0000000000000000
462 462 1.0000000000000000
462 1962 1.0000000000000000
463 463 1.0000000000000000
463 1963 1.0000000000000000
464 464 1.0000000000000000
464 1964 1.0000000000000000
465 465 1.0000000000000000
465 1965 1.0000000000000000
466 466 1.0000000000000000
466 1966 1.0000000000000000
467 467 1.0000000000000000
467 1967 1.0000000000000000
468 468 1.0000000000000000
468 1968 1.0000000000000000
469 469 1.0000000000000000
469 1969 1.0000000000000000
470 470 1.0000000000000000
470 1970 1.0000000000000000
471 471 1.0000000000000000
471 1971 1.0000000000000000
472 472 1.0000000000000000
472 1972 1.0000000000000000
473 473 1.0000000000000000
473 1973 1.0000000000000000
474 474 1.0000000000000000
474 1974 1.0000000000000000
475 475 1.0000000000000000
475 1975 1.0000000000000000
476 476 1.0000000000000000
476 1976 1.0000000000000000
477 477 1.0000000000000000
477 1977 1.0000000000000000
478 478 1.0000000000000000
478 1978 1.0000000000000000
479 479 1.0000000000000000
479 1979 1.0000000000000000
480 480 1.0000000000000000
480 1980 1.0000000000000000
481 481 1.0000000000000000
481 1981 1.0000000000000000
482 482 1.0000000000000000
482 1982 1.0000000000000000
483 483 1.0000000000000000
483 1983 1.0000000000000000
484 484 1.0000000000000000
484 1984 1.0000000000000000
485 485 1.0000000000000000
485 1985 1.0000000000000000
486 486 1.0000000000000000
486 1986 1.0000000000000000
487 487 1.0000000000000000
487 1987 1.0000000000000000
488 488 1.0000000000000000
488 1988 1.0000000000000000
489 489 1.0000000000000000
489 1989 1.0000000000000000
490 490 1.0000000000000000
490 1990 1.0000000000000000
491 491 1.0000000000000000
491 1991 1.0000000000000000
492 492 1.0000000000000000
492 1992 1.0000000000000000
493 493 1.0000000000000000
493 1993 1.0000000000000000
494 494 1.0000000000000000
494 1994 1.0000000000000000
495 495 1.0000000000000000
495 1995 1.0000000000000000
496 496 1.0000000000000000
496 1996 1.0000000000000000
497 497 1.0000000000000000
497 1997 1.0000000000000000
498 498 1.0000000000000000
498 1998 1.0000000000000000
499 499 1.0000000000000000
499 1999 1.0000000000000000
500 500 1.0000000000000000
500 2000 1.0000000000000000
501 501 1.0000000000000000
501 2001 1.0000000000000000
502 502 1.0000000000000000
502 2002 1.0000000000000000
503 503 1.0000000000000000
503 2003 1.0000000000000000
504 504 1.0000000000000000
504 2004 1.0000000000000000
505 505 1.0000000000000000
505 2005 1.0000000000000000
506 506 1.0000000000000000
506 2006 1.0000000000000000
507 507 1.0000000000000000
507 2007 1.0000000000000000
508 508 1.0000000000000000
508 2008 1.0000000000000000
509 509 1.0000000000000000
509 2009 1.0000000000000000
510 510 1.0000000000000000
510 2010 1.0000000000000000
511 511 1.0000000000000000
511 2011 1.0000000000000000
512 512 1.0000000000000000
512 2012 1.0000000000000000
513 513 1.0000000000000000
513 2013 1.0000000000000000
514 514 1.0000000000000000
514 2014 1.0000000000000000
515 515 1.0000000000000000
515 2015 1.0000000000000000
516 516 1.0000000000000000
516 2016 1.0000000000000000
517 517 1.0000000000000000
517 2017 1.0000000000000000
518 518 1.0000000000000000
518 2018 1.0000000000000000
519 519 1.0000000000000000
519 2019 1.0000000000000000
520 520 1.0000000000000000
520 2020 1.0000000000000000
521 521 1.0000000000000000
521 2021 1.0000000000000000
522 522 1.0000000000000000
522 2022 1.0000000000000000
523 523 1.0000000000000000
523 2023 1.0000000000000000
524 524 1.0000000000000000
524 2024 1.0000000000000000
525 525 1.0000000000000000
525 2025 1.0000000000000000
526 526 1.0000000000000000
526 2026 1.0000000000000000
527 527 1.0000000000000000
527 2027 1.0000000000000000
528 528 1.0000000000000000
528 2028 1.0000000000000000
529 529 1.0000000000000000
529 2029 1.0000000000000000
530 530 1.0000000000000000
530 2030 1.0000000000000000
531 531 1.0000000000000000
531 2031 1.0000000000000000
532 532 1.0000000000000000
532 2032 1.0000000000000000
533 533 1.0000000000000000
533 2033 1.0000000000000000
534 534 1.0000000000000000
534 2034 1.0000000000000000
535 535 1.0000000000000000
535 2035 1.0000000000000000
536 536 1.0000000000000000
536 2036 1.0000000000000000
537 537 1.0000000000000000
537 2037 1.0000000000000000
538 538 1.0000000000000000
538 2038 1.0000000000000000
539 539 1.0000000000000000
539 2039 1.0000000000000000
540 540 1.0000000000000000
540 2040 1.0000000000000000
541 541 1.0000000000000000
541 2041 1.0000000000000000
542 542 1.0000000000000000
542 2042 1.0000000000000000
543 543 1.0000000000000000
543 2043 1.0000000000000000
544 544 1.0000000000000000
544 2044 1.0000000000000000
545 545 1.0000000000000000
545 2045 1.0000000000000000
546 546 1.0000000000000000
546 2046 1.0000000000000000
547 547 1.0000000000000000
547 2047 1.0000000000000000
548 548 1.0000000000000000
548 2048 1.0000000000000000
549 549 1.0000000000000000
549 2049 1.0000000000000000
550 550 1.0000000000000000
550 2050 1.0000000000000000
551 551 1.0000000000000000
551 2051 1.0000000000000000
552 552 1.0000000000000000
552 2052 1.0000000000000000
553 553 1.0000000000000000
553 2053 1.0000000000000000
554 554 1.0000000000000000
554 2054 1.0000000000000000
555 555 1.0000000000000000
555 2055 1.0000000000000000
556 556 1.0000000000000000
556 2056 1.0000000000000000
557 557 1.0000000000000000
557 2057 1.0000000000000000
558 558 1.0000000000000000
558 2058 1.0000000000000000
559 559 1.0000000000000000
559 2059 1.0000000000000000
560 560 1.0000000000000000
560 2060 1.0000000000000000
561 561 1.0000000000000000
561 2061 1.0000000000000000
562 562 1.0000000000000000
562 2062 1.0000000000000000
563 563 1.0000000000000000
563 2063 1.0000000000000000
564 564 1.0000000000000000
564 2064 1.0000000000000000
565 565 1.0000000000000000
565 2065 1.0000000000000000
566 566 1.0000000000000000
566 2066 1.0000000000000000
567 567 1.0000000000000000
567 2067 1.0000000000000000
568 568 1.0000000000000000
568 2068 1.0000000000000000
569 569 1.0000000000000000
569 2069 1.0000000000000000
570 570 1.0000000000000000
570 2070 1.0000000000000000
571 571 1.0000000000000000
571 2071 1.0000000000000000
572 572 1.0000000000000000
572 2072 1.0000000000000000
573 573 1.0000000000000000
573 2073 1.0000000000000000
574 574 1.0000000000000000
574 2074 1.0000000000000000
575 575 1.0000000000000000
575 2075 1.0000000000000000
576 576 1.0000000000000000
576 2076 1.0000000000000000
577 577 1.0000000000000000
577 2077 1.0000000000000000
578 578 1.0000000000000000
578 2078 1.0000000000000000
579 579 1.0000000000000000
579 2079 1.0000000000000000
580 580 1.0000000000000000
580 2080 1.0000000000000000
581 581 1.0000000000000000
581 2081 1.0000000000000000
582 582 1.0000000000000000
582 2082 1.0000000000000000
583 583 1.0000000000000000
583 2083 1.0000000000000000
584 584 1.0000000000000000
584 2084 1.0000000000000000
585 585 1.0000000000000000
585 2085 1.0000000000000000
586 586 1.0000000000000000
586 2086 1.0000000000000000
587 587 1.0000000000000000
587 2087 1.0000000000000000
588 588 1.0000000000000000
588 2088 1.0000000000000000
589 589 1.0000000000000000
589 2089 1.0000000000000000
590 590 1.0000000000000000
590 2090 1.0000000000000000
591 591 1.0000000000000000
591 2091 1.0000000000000000
592 592 1.0000000000000000
592 2092 1.0000000000000000
593 593 1.0000000000000000
593 2093 1.0000000000000000
594 594 1.0000000000000000
594 2094 1.0000000000000000
595 595 1.0000000000000000
595 2095 1.0000000000000000
596 596 1.0000000000000000
596 2096 1.0000000000000000
597 597 1.0000000000000000
597 2097 1.0000000000000000
598 598 1.0000000000000000
598 2098 1.0000000000000000
599 599 1.0000000000000000
599 2099 1.0000000000000000
600 600 1.0000000000000000
600 2100 1.0000000000000000
601 601 1.0000000000000000
601 2101 1.0000000000000000
602 602 1.0000000000000000
602 2102 1.0000000000000000
603 603 1.0000000000000000
603 2103 1.0000000000000000
604 604 1.0000000000000000
604 2104 1.0000000000000000
605 605 1.0000000000000000
605 2105 1.0000000000000000
606 606 1.0000000000000000
606 2106 1.0000000000000000
607 607 1.0000000000000000
607 2107 1.0000000000000000
608 608 1.0000000000000000
608 2108 1.0000000000000000
609 609 1.0000000000000000
609 2109 1.0000000000000000
610 610 1.0000000000000000
610 2110 1.0000000000000000
611 611 1.0000000000000000
611 2111 1.0000000000000000
612 612 1.0000000000000000
612 2112 1.0000000000000000
613 613 1.0000000000000000
613 2113 1.0000000000000000
614 614 1.0000000000000000
614 2114 1.0000000000000000
615 615 1.0000000000000000
615 2115 1.0000000000000000
616 616 1.0000000000000000
616 2116 1.0000000000000000
617 617 1.0000000000000000
617 2117 1.0000000000000000
618 618 1.0000000000000000
618 2118 1.0000000000000000
619 619 1.0000000000000000
619 2119 1.0000000000000000
620 620 1.0000000000000000
620 2120 1.0000000000000000
621 621 1.0000000000000000
621 2121 1.0000000000000000
622 622 1.0000000000000000
622 2122 1.0000000000000000
623 623 1.0000000000000000
623 2123 1.0000000000000000
624 624 1.0000000000000000
624 2124 1.0000000000000000
625 625 1.0000000000000000
625 2125 1.0000000000000000
626 626 1.0000000000000000
626 2126 1.0000000000000000
627 627 1.0000000000000000
627 2127 1.0000000000000000
628 628 1.0000000000000000
628 2128 1.0000000000000000
629 629 1.0000000000000000
629 2129 1.0000000000000000
630 630 1.0000000000000000
630 2130 1.0000000000000000
631 631 1.0000000000000000
631 2131 1.0000000000000000
632 632 1.0000000000000000
632 2132 1.0000000000000000
633 633 1.0000000000000000
633 2133 1.0000000000000000
634 634 1.0000000000000000
634 2134 1.0000000000000000
635 635 1.0000000000000000
635 2135 1.0000000000000000
636 636 1.0000000000000000
636 2136 1.0000000000000000
637 637 1.0000000000000000
637 2137 1.0000000000000000
638 638 1.0000000000000000
638 2138 1.0000000000000000
639 639 1.0000000000000000
639 2139 1.0000000000000000
640 640 1.0000000000000000
640 2140 1.0000000000000000
641 641 1.0000000000000000
641 2141 1.0000000000000000
642 642 1.0000000000000000
642 2142 1.0000000000000000
643 643 1.0000000000000000
643 2143 1.0000000000000000
644 644 1.0000000000000000
644 2144 1.0000000000000000
645 645 1.0000000000000000
645 2145 1.0000000000000000
646 646 1.0000000000000000
646 2146 1.0000000000000000
647 647 1.0000000000000000
647 2147 1.0000000000000000
648 648 1.0000000000000000
648 2148 1.0000000000000000
649 649 1.0000000000000000
649 2149 1.0000000000000000
650 650 1.0000000000000000
650 2150 1.0000000000000000
651 651 1.0000000000000000
651 2151 1.0000000000000000
652 652 1.0000000000000000
652 2152 1.0000000000000000
653 653 1.0000000000000000
653 2153 1.0000000000000000
654 654 1.0000000000000000
654 2154 1.0000000000000000
655 655 1.0000000000000000
655 2155 1.0000000000000000
656 656 1.0000000000000000
656 2156 1.0000000000000000
657 657 1.0000000000000000
657 2157 1.0000000000000000
658 658 1.0000000000000000
658 2158 1.0000000000000000
659 659 1.0000000000000000
659 2159 1.0000000000000000
660 660 1.0000000000000000
660 2160 1.0000000000000000
661 661 1.0000000000000000
661 2161 1.0000000000000000
662 662 1.0000000000000000
662 2162 1.0000000000000000
663 663 1.0000000000000000
663 2163 1.0000000000000000
664 664 1.0000000000000000
664 2164 1.0000000000000000
665 665 1.0000000000000000
665 2165 1.0000000000000000
666 666 1.0000000000000000
666 2166 1.0000000000000000
667 667 1.0000000000000000
667 2167 1.0000000000000000
668 668 1.0000000000000000
668 2168 1.0000000000000000
669 669 1.0000000000000000
669 2169 1.0000000000000000
670 670 1.0000000000000000
670 2170 1.0000000000000000
671 671 1.0000000000000000
671 2171 1.0000000000000000
672 672 1.0000000000000000
672 2172 1.0000000000000000
673 673 1.0000000000000000
673 2173 1.0000000000000000
674 674 1.0000000000000000
674 2174 1.0000000000000000
675 675 1.0000000000000000
675 2175 1.0000000000000000
676 676 1.0000000000000000
676 2176 1.0000000000000000
677 677 1.0000000000000000
677 2177 1.0000000000000000
678 678 1.0000000000000000
678 2178 1.0000000000000000
679 679 1.0000000000000000
679 2179 1.0000000000000000
680 680 1.0000000000000000
680 2180 1.0000000000000000
681 681 1.0000000000000000
681 2181 1.0000000000000000
682 682 1.0000000000000000
682 2182 1.0000000000000000
683 683 1.0000000000000000
683 2183 1.0000000000000000
684 684 1.0000000000000000
684 2184 1.0000000000000000
685 685 1.0000000000000000
685 2185 1.0000000000000000
686 686 1.0000000000000000
686 2186 1.0000000000000000
687 687 1.0000000000000000
687 2187 1.0000000000000000
688 688 1.0000000000000000
688 2188 1.0000000000000000
689 689 1.0000000000000000
689 2189 1.0000000000000000
690 690 1.0000000000000000
690 2190 1.0000000000000000
691 691 1.0000000000000000
691 2191 1.0000000000000000
692 692 1.0000000000000000
692 2192 1.0000000000000000
693 693 1.0000000000000000
693 2193 1.0000000000000000
694 694 1.0000000000000000
694 2194 1.0000000000000000
695 695 1.0000000000000000
695 2195 1.0000000000000000
696 696 1.0000000000000000
696 2196 1.0000000000000000
697 697 1.0000000000000000
697 2197 1.0000000000000000
698 698 1.0000000000000000
698 2198 1.0000000000000000
699 699 1.0000000000000000
699 2199 1.0000000000000000
700 700 1.0000000000000000
700 2200 1.0000000000000000
701 701 1.0000000000000000
701 2201 1.0000000000000000
702 702 1.0000000000000000
702 2202 1.0000000000000000
703 703 1.0000000000000000
703 2203 1.0000000000000000
704 704 1.0000000000000000
704 2204 1.0000000000000000
705 705 1.0000000000000000
705 2205 1.0000000000000000
706 706 1.0000000000000000
706 2206 1.0000000000000000
707 707 1.0000000000000000
707 2207 1.0000000000000000
708 708 1.0000000000000000
708 2208 1.0000000000000000
709 709 1.0000000000000000
709 2209 1.0000000000000000
710 710 1.0000000000000000
710 2210 1.0000000000000000
711 711 1.0000000000000000
711 2211 1.0000000000000000
712 712 1.0000000000000000
712 2212 1.0000000000000000
713 713 1.0000000000000000
713 2213 1.0000000000000000
714 714 1.0000000000000000
714 2214 1.0000000000000000
715 715 1.0000000000000000
715 2215 1.0000000000000000
716 716 1.0000000000000000
716 2216 1.0000000000000000
717 717 1.0000000000000000
717 2217 1.0000000000000000
718 718 1.0000000000000000
718 2218 1.0000000000000000
719 719 1.0000000000000000
719 2219 1.0000000000000000
720 720 1.0000000000000000
720 2220 1.0000000000000000
721 721 1.0000000000000000
721 2221 1.0000000000000000
722 722 1.0000000000000000
722 2222 1.0000000000000000
723 723 1.0000000000000000
723 2223 1.0000000000000000
724 724 1.0000000000000000
724 2224 1.0000000000000000
725 725 1.0000000000000000
725 2225 1.0000000000000000
726 726 1.0000000000000000
726 2226 1.0000000000000000
727 727 1.0000000000000000
727 2227 1.0000000000000000
728 728 1.0000000000000000
728 2228 1.0000000000000000
729 729 1.0000000000000000
729 2229 1.0000000000000000
730 730 1.0000000000000000
730 2230 1.0000000000000000
731 731 1.0000000000000000
731 2231 1.0000000000000000
732 732 1.0000000000000000
732 2232 1.0000000000000000
733 733 1.0000000000000000
733 2233 1.0000000000000000
734 734 1.0000000000000000
734 2234 1.0000000000000000
735 735 1.0000000000000000
735 2235 1.0000000000000000
736 736 1.0000000000000000
736 2236 1.0000000000000000
737 737 1.0000000000000000
737 2237 1.0000000000000000
738 738 1.0000000000000000
738 2238 1.0000000000000000
739 739 1.0000000000000000
739 2239 1.0000000000000000
740 740 1.0000000000000000
740 2240 1.0000000000000000
741 741 1.0000000000000000
741 2241 1.0000000000000000
742 742 1.0000000000000000
742 2242 1.0000000000000000
743 743 1.0000000000000000
743 2243 1.0000000000000000
744 744 1.0000000000000000
744 2244 1.0000000000000000
745 745 1.0000000000000000
745 2245 1.0000000000000000
746 746 1.0000000000000000
746 2246 1.0000000000000000
747 747 1.0000000000000000
747 2247 1.0000000000000000
748 748 1.0000000000000000
748 2248 1.0000000000000000
749 749 1.0000000000000000
749 2249 1.0000000000000000
750 750 1.0000000000000000
750 2250 1.0000000000000000
751 751 1.0000000000000000
751 2251 1.0000000000000000
752 752 1.0000000000000000
752 2252 1.0000000000000000
753 753 1.0000000000000000
753 2253 1.0000000000000000
754 754 1.0000000000000000
754 2254 1.0000000000000000
755 755 1.0000000000000000
755 2255 1.0000000000000000
756 756 1.0000000000000000
756 2256 1.0000000000000000
757 757 1.0000000000000000
757 2257 1.0000000000000000
758 758 1.0000000000000000
758 2258 1.0000000000000000
759 759 1.0000000000000000
759 2259 1.0000000000000000
760 760 1.0000000000000000
760 2260 1.0000000000000000
761 761 1.0000000000000000
761 2261 1.0000000000000000
762 762 1.0000000000000000
762 2262 1.0000000000000000
763 763 1.0000000000000000
763 2263 1.0000000000000000
764 764 1.0000000000000000
764 2264 1.0000000000000000
765 765 1.0000000000000000
765 2265 1.0000000000000000
766 766 1.0000000000000000
766 2266 1.0000000000000000
767 767 1.0000000000000000
767 2267 1.0000000000000000
768 768 1.0000000000000000
768 2268 1.0000000000000000
769 769 1.0000000000000000
769 2269 1.0000000000000000
770 770 1.0000000000000000
770 2270 1.0000000000000000
771 771 1.0000000000000000
771 2271 1.0000000000000000
772 772 1.0000000000000000
772 2272 1.0000000000000000
773 773 1.0000000000000000
773 2273 1.0000000000000000
774 774 1.0000000000000000
774 2274 1.0000000000000000
775 775 1.0000000000000000
775 2275 1.0000000000000000
776 776 1.0000000000000000
776 2276 1.0000000000000000
777 777 1.0000000000000000
777 2277 1.0000000000000000
778 778 1.0000000000000000
778 2278 1.0000000000000000
779 779 1.0000000000000000
779 2279 1.0000000000000000
780 780 1.0000000000000000
780 2280 1.0000000000000000
781 781 1.0000000000000000
781 2281 1.0000000000000000
782 782 1.0000000000000000
782 2282 1.0000000000000000
783 783 1.0000000000000000
783 2283 1.0000000000000000
784 784 1.0000000000000000
784 2284 1.0000000000000000
785 785 1.0000000000000000
785 2285 1.0000000000000000
786 786 1.0000000000000000
786 2286 1.0000000000000000
787 787 1.0000000000000000
787 2287 1.0000000000000000
788 788 1.0000000000000000
788 2288 1.0000000000000000
789 789 1.0000000000000000
789 2289 1.0000000000000000
790 790 1.0000000000000000
790 2290 1.0000000000000000
791 791 1.0000000000000000
791 2291 1.0000000000000000
792 792 1.0000000000000000
792 2292 1.0000000000000000
793 793 1.0000000000000000
793 2293 1.0000000000000000
794 794 1.0000000000000000
794 2294 1.0000000000000000
795 795 1.0000000000000000
795 2295 1.0000000000000000
796 796 1.0000000000000000
796 2296 1.0000000000000000
797 797 1.0000000000000000
797 2297 1.0000000000000000
798 798 1.0000000000000000
798 2298 1.0000000000000000
799 799 1.0000000000000000
799 2299 1.0000000000000000
800 800 1.0000000000000000
800 2300 1.0000000000000000
801 801 1.0000000000000000
801 2301 1.0000000000000000
802 802 1.0000000000000000
802 2302 1.0000000000000000
803 803 1.0000000000000000
803 2303 1.0000000000000000
804 804 1.0000000000000000
804 2304 1.0000000000000000
805 805 1.0000000000000000
805 2305 1.0000000000000000
806 806 1.0000000000000000
806 2306 1.0000000000000000
807 807 1.0000000000000000
807 2307 1.0000000000000000
808 808 1.0000000000000000
808 2308 1.0000000000000000
809 809 1.0000000000000000
809 2309 1.0000000000000000
810 810 1.0000000000000000
810 2310 1.0000000000000000
811 811 1.0000000000000000
811 2311 1.0000000000000000
812 812 1.0000000000000000
812 2312 1.0000000000000000
813 813 1.0000000000000000
813 2313 1.0000000000000000
814 814 1.0000000000000000
814 2314 1.0000000000000000
815 815 1.0000000000000000
815 2315 1.0000000000000000
816 816 1.0000000000000000
816 2316 1.0000000000000000
817 817 1.0000000000000000
817 2317 1.0000000000000000
818 818 1.0000000000000000
818 2318 1.0000000000000000
819 819 1.0000000000000000
819 2319 1.0000000000000000
820 820 1.0000000000000000
820 2320 1.0000000000000000
821 821 1.0000000000000000
821 2321 1.0000000000000000
822 822 1.0000000000000000
822 2322 1.0000000000000000
823 823 1.0000000000000000
823 2323 1.0000000000000000
824 824 1.0000000000000000
824 2324 1.0000000000000000
825 825 1.0000000000000000
825 2325 1.0000000000000000
826 826 1.0000000000000000
826 2326 1.0000000000000000
827 827 1.0000000000000000
827 2327 1.0000000000000000
828 828 1.0000000000000000
828 2328 1.0000000000000000
829 829 1.0000000000000000
829 2329 1.0000000000000000
830 830 1.0000000000000000
830 2330 1.0000000000000000
831 831 1.0000000000000000
831 2331 1.0000000000000000
832 832 1.0000000000000000
832 2332 1.0000000000000000
833 833 1.0000000000000000
833 2333 1.0000000000000000
834 834 1.0000000000000000
834 2334 1.0000000000000000
835 835 1.0000000000000000
835 2335 1.0000000000000000
836 836 1.0000000000000000
836 2336 1.0000000000000000
837 837 1.0000000000000000
837 2337 1.0000000000000000
838 838 1.0000000000000000
838 2338 1.0000000000000000
839 839 1.0000000000000000
839 2339 1.0000000000000000
840 840 1.0000000000000000
840 2340 1.0000000000000000
841 841 1.0000000000000000
841 2341 1.0000000000000000
842 842 1.0000000000000000
842 2342 1.0000000000000000
843 843 1.0000000000000000
843 2343 1.0000000000000000
844 844 1.0000000000000000
844 2344 1.0000000000000000
845 845 1.0000000000000000
845 2345 1.0000000000000000
846 846 1.0000000000000000
846 2346 1.0000000000000000
847 847 1.0000000000000000
847 2347 1.0000000000000000
848 848 1.0000000000000000
848 2348 1.0000000000000000
849 849 1.0000000000000000
849 2349 1.0000000000000000
850 850 1.0000000000000000
850 2350 1.0000000000000000
851 851 1.0000000000000000
851 2351 1.0000000000000000
852 852 1.0000000000000000
852 2352 1.0000000000000000
853 853 1.0000000000000000
853 2353 1.0000000000000000
854 854 1.0000000000000000
854 2354 1.0000000000000000
855 855 1.0000000000000000
855 2355 1.0000000000000000
856 856 1.0000000000000000
856 2356 1.0000000000000000
857 857 1.0000000000000000
857 2357 1.0000000000000000
858 858 1.0000000000000000
858 2358 1.0000000000000000
859 859 1.0000000000000000
859 2359 1.0000000000000000
860 860 1.0000000000000000
860 2360 1.0000000000000000
861 861 1.0000000000000000
861 2361 1.0000000000000000
862 862 1.0000000000000000
862 2362 1.0000000000000000
863 863 1.0000000000000000
863 2363 1.0000000000000000
864 864 1.0000000000000000
864 2364 1.0000000000000000
865 865 1.0000000000000000
865 2365 1.0000000000000000
866 866 1.0000000000000000
866 2366 1.0000000000000000
867 867 1.0000000000000000
867 2367 1.0000000000000000
868 868 1.0000000000000000
868 2368 1.0000000000000000
869 869 1.0000000000000000
869 2369 1.0000000000000000
870 870 1.0000000000000000
870 2370 1.0000000000000000
871 871 1.0000000000000000
871 2371 1.0000000000000000
872 872 1.0000000000000000
872 2372 1.0000000000000000
873 873 1.0000000000000000
873 2373 1.0000000000000000
874 874 1.0000000000000000
874 2374 1.0000000000000000
875 875 1.0000000000000000
875 2375 1.0000000000000000
876 876 1.0000000000000000
876 2376 1.0000000000000000
877 877 1.0000000000000000
877 2377 1.0000000000000000
878 878 1.0000000000000000
878 2378 1.0000000000000000
879 879 1.0000000000000000
879 2379 1.0000000000000000
880 880 1.0000000000000000
880 2380 1.0000000000000000
881 881 1.0000000000000000
881 2381 1.0000000000000000
882 882 1.0000000000000000
882 2382 1.0000000000000000
883 883 1.0000000000000000
883 2383 1.0000000000000000
884 884 1.0000000000000000
884 2384 1.0000000000000000
885 885 1.0000000000000000
885 2385 1.0000000000000000
886 886 1.0000000000000000
886 2386 1.0000000000000000
887 887 1.0000000000000000
887 2387 1.0000000000000000
888 888 1.0000000000000000
888 2388 1.0000000000000000
889 889 1.0000000000000000
889 2389 1.0000000000000000
890 890 1.0000000000000000
890 2390 1.0000000000000000
891 891 1.0000000000000000
891 2391 1.0000000000000000
892 892 1.0000000000000000
892 2392 1.0000000000000000
893 893 1.0000000000000000
893 2393 1.0000000000000000
894 894 1.0000000000000000
894 2394 1.0000000000000000
895 895 1.0000000000000000
895 2395 1.0000000000000000
896 896 1.0000000000000000
896 2396 1.0000000000000000
897 897 1.0000000000000000
897 2397 1.0000000000000000
898 898 1.0000000000000000
898 2398 1.0000000000000000
899 899 1.0000000000000000
899 2399 1.0000000000000000
900 900 1.0000000000000000
900 2400 1.0000000000000000
901 901 1.0000000000000000
901 2401 1.0000000000000000
902 902 1.0000000000000000
902 2402 1.0000000000000000
903 903 1.0000000000000000
903 2403 1.0000000000000000
904 904 1.0000000000000000
904 2404 1.0000000000000000
905 905 1.0000000000000000
905 2405 1.0000000000000000
906 906 1.0000000000000000
906 2406 1.0000000000000000
907 907 1.0000000000000000
907 2407 1.0000000000000000
908 908 1.0000000000000000
908 2408 1.0000000000000000
909 909 1.0000000000000000
909 2409 1.0000000000000000
910 910 1.0000000000000000
910 2410 1.0000000000000000
911 911 1.0000000000000000
911 2411 1.0000000000000000
912 912 1.0000000000000000
912 2412 1.0000000000000000
913 913 1.0000000000000000
913 2413 1.0000000000000000
914 914 1.0000000000000000
914 2414 1.0000000000000000
915 915 1.0000000000000000
915 2415 1.0000000000000000
916 916 1.0000000000000000
916 2416 1.0000000000000000
917 917 1.0000000000000000
917 2417 1.0000000000000000
918 918 1.0000000000000000
918 2418 1.0000000000000000
919 919 1.0000000000000000
919 2419 1.0000000000000000
920 920 1.0000000000000000
920 2420 1.0000000000000000
921 921 1.0000000000000000
921 2421 1.0000000000000000
922 922 1.0000000000000000
922 2422 1.0000000000000000
923 923 1.0000000000000000
923 2423 1.0000000000000000
924 924 1.0000000000000000
924 2424 1.0000000000000000
925 925 1.0000000000000000
925 2425 1.0000000000000000
926 926 1.0000000000000000
926 2426 1.0000000000000000
927 927 1.0000000000000000
927 2427 1.0000000000000000
928 928 1.0000000000000000
928 2428 1.0000000000000000
929 929 1.0000000000000000
929 2429 1.0000000000000000
930 930 1.0000000000000000
930 2430 1.0000000000000000
931 931 1.0000000000000000
931 2431 1.0000000000000000
932 932 1.0000000000000000
932 2432 1.0000000000000000
933 933 1.0000000000000000
933 2433 1.0000000000000000
934 934 1.0000000000000000
934 2434 1.0000000000000000
935 935 1.0000000000000000
935 2435 1.0000000000000000
936 936 1.0000000000000000
936 2436 1.0000000000000000
937 937 1.0000000000000000
937 2437 1.0000000000000000
938 938 1.0000000000000000
938 2438 1.0000000000000000
939 939 1.0000000000000000
939 2439 1.0000000000000000
940 940 1.0000000000000000
940 2440 1.0000000000000000
941 941 1.0000000000000000
941 2441 1.0000000000000000
942 942 1.0000000000000000
942 2442 1.0000000000000000
943 943 1.0000000000000000
943 2443 1.0000000000000000
944 944 1.0000000000000000
944 2444 1.0000000000000000
945 945 1.0000000000000000
945 2445 1.0000000000000000
946 946 1.0000000000000000
946 2446 1.0000000000000000
947 947 1.0000000000000000
947 2447 1.0000000000000000
948 948 1.0000000000000000
948 2448 1.0000000000000000
949 949 1.0000000000000000
949 2449 1.0000000000000000
950 950 1.0000000000000000
950 2450 1.0000000000000000
951 951 1.0000000000000000
951 2451 1.0000000000000000
952 952 1.0000000000000000
952 2452 1.0000000000000000
953 953 1.0000000000000000
953 2453 1.0000000000000000
954 954 1.0000000000000000
954 2454 1.0000000000000000
955 955 1.0000000000000000
955 2455 1.0000000000000000
956 956 1.0000000000000000
956 2456 1.0000000000000000
957 957 1.0000000000000000
957 2457 1.0000000000000000
958 958 1.0000000000000000
958 2458 1.0000000000000000
959 959 1.0000000000000000
959 2459 1.0000000000000000
960 960 1.0000000000000000
960 2460 1.0000000000000000
961 961 1.0000000000000000
961 2461 1.0000000000000000
962 962 1.0000000000000000
962 2462 1.0000000000000000
963 963 1.0000000000000000
963 2463 1.0000000000000000
964 964 1.0000000000000000
964 2464 1.0000000000000000
965 965 1.0000000000000000
965 2465 1.0000000000000000
966 966 1.0000000000000000
966 2466 1.0000000000000000
967 967 1.0000000000000000
967 2467 1.0000000000000000
968 968 1.0000000000000000
968 2468 1.0000000000000000
969 969 1.0000000000000000
969 2469 1.0000000000000000
970 970 1.0000000000000000
970 2470 1.0000000000000000
971 971 1.0000000000000000
971 2471 1.0000000000000000
972 972 1.0000000000000000
972 2472 1.0000000000000000
973 973 1.0000000000000000
973 2473 1.0000000000000000
974 974 1.0000000000000000
974 2474 1.0000000000000000
975 975 1.0000000000000000
975 2475 1.0000000000000000
976 976 1.0000000000000000
976 2476 1.0000000000000000
977 977 1.0000000000000000
977 2477 1.0000000000000000
978 978 1.0000000000000000
978 2478 1.0000000000000000
979 979 1.0000000000000000
979 2479 1.0000000000000000
980 980 1.0000000000000000
980 2480 1.0000000000000000
981 981 1.0000000000000000
981 2481 1.0000000000000000
982 982 1.0000000000000000
982 2482 1.0000000000000000
983 983 1.0000000000000000
983 2483 1.0000000000000000
984 984 1.0000000000000000
984 2484 1.0000000000000000
985 985 1.0000000000000000
985 2485 1.0000000000000000
986 986 1.0000000000000000
986 2486 1.0000000000000000
987 987 1.0000000000000000
987 2487 1.0000000000000000
988 988 1.0000000000000000
988 2488 1.0000000000000000
989 989 1.0000000000000000
989 2489 1.0000000000000000
990 990 1.0000000000000000
990 2490 1.0000000000000000
991 991 1.0000000000000000
991 2491 1.0000000000000000
992 992 1.0000000000000000
992 2492 1.0000000000000000
993 993 1.0000000000000000
993 2493 1.0000000000000000
994 994 1.0000000000000000
994 2494 1.0000000000000000
995 995 1.0000000000000000
995 2495 1.0000000000000000
996 996 1.0000000000000000
996 2496 1.0000000000000000
997 997 1.0000000000000000
997 2497 1.0000000000000000
998 998 1.0000000000000000
998 2498 1.0000000000000000
999 999 1.0000000000000000
999 2499 1.0000000000000000
1000 1000 1.0000000000000000
1000 2500 1.0000000000000000
1001 1001 1.0000000000000000
1001 2501 1.0000000000000000
1002 1002 1.0000000000000000
1002 2502 1.0000000000000000
1003 1003 1.0000000000000000
1003 2503 1.0000000000000000
1004 1004 1.0000000000000000
1004 2504 1.0000000000000000
1005 1005 1.0000000000000000
1005 2505 1.0000000000000000
1006 1006 1.0000000000000000
1006 2506 1.0000000000000000
1007 1007 1.0000000000000000
1007 2507 1.0000000000000000
1008 1008 1.0000000000000000
1008 2508 1.0000000000000000
1009 1009 1.0000000000000000
1009 2509 1.0000000000000000
1010 1010 1.0000000000000000
1010 2510 1.0000000000000000
1011 1011 1.0000000000000000
1011 2511 1.0000000000000000
1012 1012 1.0000000000000000
1012 2512 1.0000000000000000
1013 1013 1.0000000000000000
1013 2513 1.0000000000000000
1014 1014 1.0000000000000000
1014 2514 1.0000000000000000
1015 1015 1.0000000000000000
1015 2515 1.0000000000000000
1016 1016 1.0000000000000000
1016 2516 1.0000000000000000
1017 1017 1.0000000000000000
1017 2517 1.0000000000000000
1018 1018 1.0000000000000000
1018 2518 1.0000000000000000
1019 1019 1.0000000000000000
1019 2519 1.0000000000000000
1020 1020 1.0000000000000000
1020 2520 1.0000000000000000
1021 1021 1.0000000000000000
1021 2521 1.0000000000000000
1022 1022 1.0000000000000000
1022 2522 1.0000000000000000
1023 1023 1.0000000000000000
1023 2523 1.0000000000000000
1024 1024 1.0000000000000000
1024 2524 1.0000000000000000
1025 1025 1.0000000000000000
1025 2525 1.0000000000000000
1026 1026 1.0000000000000000
1026 2526 1.0000000000000000
1027 1027 1.0000000000000000
1027 2527 1.0000000000000000
1028 1028 1.0000000000000000
1028 2528 1.0000000000000000
1029 1029 1.0000000000000000
1029 2529 1.0000000000000000
1030 1030 1.0000000000000000
1030 2530 1.0000000000000000
1031 1031 1.0000000000000000
1031 2531 1.0000000000000000
1032 1032 1.0000000000000000
1032 2532 1.0000000000000000
1033 1033 1.0000000000000000
1033 2533 1.0000000000000000
1034 1034 1.0000000000000000
1034 2534 1.0000000000000000
1035 1035 1.0000000000000000
1035 2535 1.0000000000000000
1036 1036 1.0000000000000000
1036 2536 1.0000000000000000
1037 1037 1.0000000000000000
1037 2537 1.0000000000000000
1038 1038 1.0000000000000000
1038 2538 1.0000000000000000
1039 1039 1.0000000000000000
1039 2539 1.0000000000000000
1040 1040 1.0000000000000000
1040 2540 1.0000000000000000
1041 1041 1.0000000000000000
1041 2541 1.0000000000000000
1042 1042 1.0000000000000000
1042 2542 1.0000000000000000
1043 1043 1.0000000000000000
1043 2543 1.0000000000000000
1044 1044 1.0000000000000000
1044 2544 1.0000000000000000
1045 1045 1.0000000000000000
1045 2545 1.0000000000000000
1046 1046 1.0000000000000000
1046 2546 1.0000000000000000
1047 1047 1.0000000000000000
1047 2547 1.0000000000000000
1048 1048 1.0000000000000000
1048 2548 1.0000000000000000
1049 1049 1.0000000000000000
1049 2549 1.0000000000000000
1050 1050 1.0000000000000000
1050 2550 1.0000000000000000
1051 1051 1.0000000000000000
1051 2551 1.0000000000000000
1052 1052 1.0000000000000000
1052 2552 1.0000000000000000
1053 1053 1.0000000000000000
1053 2553 1.0000000000000000
1054 1054 1.0000000000000000
1054 2554 1.0000000000000000
1055 1055 1.0000000000000000
1055 2555 1.0000000000000000
1056 1056 1.0000000000000000
1056 2556 1.0000000000000000
1057 1057 1.0000000000000000
1057 2557 1.0000000000000000
1058 1058 1.0000000000000000
1058 2558 1.0000000000000000
1059 1059 1.0000000000000000
1059 2559 1.0000000000000000
1060 1060 1.0000000000000000
1060 2560 1.0000000000000000
1061 1061 1.0000000000000000
1061 2561 1.0000000000000000
1062 1062 1.0000000000000000
1062 2562 1.0000000000000000
1063 1063 1.0000000000000000
1063 2563 1.0000000000000000
1064 1064 1.0000000000000000
1064 2564 1.0000000000000000
1065 1065 1.0000000000000000
1065 2565 1.0000000000000000
1066 1066 1.0000000000000000
1066 2566 1.0000000000000000
1067 1067 1.0000000000000000
1067 2567 1.0000000000000000
1068 1068 1.0000000000000000
1068 2568 1.0000000000000000
1069 1069 1.0000000000000000
1069 2569 1.0000000000000000
1070 1070 1.0000000000000000
1070 2570 1.0000000000000000
1071 1071 1.0000000000000000
1071 2571 1.0000000000000000
1072 1072 1.0000000000000000
1072 2572 1.0000000000000000
1073 1073 1.0000000000000000
1073 2573 1.0000000000000000
1074 1074 1.0000000000000000
1074 2574 1.0000000000000000
1075 1075 1.0000000000000000
1075 2575 1.0000000000000000
1076 1076 1.0000000000000000
1076 2576 1.0000000000000000
1077 1077 1.0000000000000000
1077 2577 1.0000000000000000
1078 1078 1.0000000000000000
1078 2578 1.0000000000000000
1079 1079 1.0000000000000000
1079 2579 1.0000000000000000
1080 1080 1.0000000000000000
1080 2580 1.0000000000000000
1081 1081 1.0000000000000000
1081 2581 1.0000000000000000
1082 1082 1.0000000000000000
1082 2582 1.0000000000000000
1083 1083 1.0000000000000000
1083 2583 1.0000000000000000
1084 1084 1.0000000000000000
1084 2584 1.0000000000000000
1085 1085 1.0000000000000000
1085 2585 1.0000000000000000
1086 1086 1.0000000000000000
1086 2586 1.0000000000000000
1087 1087 1.0000000000000000
1087 2587 1.0000000000000000
1088 1088 1.0000000000000000
1088 2588 1.0000000000000000
1089 1089 1.0000000000000000
1089 2589 1.0000000000000000
1090 1090 1.0000000000000000
1090 2590 1.0000000000000000
1091 1091 1.0000000000000000
1091 2591 1.0000000000000000
1092 1092 1.0000000000000000
1092 2592 1.0000000000000000
1093 1093 1.0000000000000000
1093 2593 1.0000000000000000
1094 1094 1.0000000000000000
1094 2594 1.0000000000000000
1095 1095 1.0000000000000000
1095 2595 1.0000000000000000
1096 1096 1.0000000000000000
1096 2596 1.0000000000000000
1097 1097 1.0000000000000000
1097 2597 1.0000000000000000
1098 1098 1.0000000000000000
1098 2598 1.0000000000000000
1099 1099 1.0000000000000000
1099 2599 1.0000000000000000
1100 1100 1.0000000000000000
1100 2600 1.0000000000000000
1101 1101 1.0000000000000000
1101 2601 1.0000000000000000
1102 1102 1.0000000000000000
1102 2602 1.0000000000000000
1103 1103 1.0000000000000000
1103 2603 1.0000000000000000
1104 1104 1.0000000000000000
1104 2604 1.0000000000000000
1105 1105 1.0000000000000000
1105 2605 1.0000000000000000
1106 1106 1.0000000000000000
1106 2606 1.0000000000000000
1107 1107 1.0000000000000000
1107 2607 1.0000000000000000
1108 1108 1.0000000000000000
1108 2608 1.0000000000000000
1109 1109 1.0000000000000000
1109 2609 1.0000000000000000
1110 1110 1.0000000000000000
1110 2610 1.0000000000000000
1111 1111 1.0000000000000000
1111 2611 1.0000000000000000
1112 1112 1.0000000000000000
1112 2612 1.0000000000000000
1113 1113 1.0000000000000000
1113 2613 1.0000000000000000
1114 1114 1.0000000000000000
1114 2614 1.0000000000000000
1115 1115 1.0000000000000000
1115 2615 1.0000000000000000
1116 1116 1.0000000000000000
1116 2616 1.0000000000000000
1117 1117 1.0000000000000000
1117 2617 1.0000000000000000
1118 1118 1.0000000000000000
1118 2618 1.0000000000000000
1119 1119 1.0000000000000000
1119 2619 1.0000000000000000
1120 1120 1.0000000000000000
1120 2620 1.0000000000000000
1121 1121 1.0000000000000000
1121 2621 1.0000000000000000
1122 1122 1.0000000000000000
1122 2622 1.0000000000000000
1123 1123 1.0000000000000000
1123 2623 1.0000000000000000
1124 1124 1.0000000000000000
1124 2624 1.0000000000000000
1125 1125 1.0000000000000000
1125 2625 1.0000000000000000
1126 1126 1.0000000000000000
1126 2626 1.0000000000000000
1127 1127 1.0000000000000000
1127 2627 1.0000000000000000
1128 1128 1.0000000000000000
1128 2628 1.0000000000000000
1129 1129 1.0000000000000000
1129 2629 1.0000000000000000
1130 1130 1.0000000000000000
1130 2630 1.0000000000000000
1131 1131 1.0000000000000000
1131 2631 1.0000000000000000
1132 1132 1.0000000000000000
1132 2632 1.0000000000000000
1133 1133 1.0000000000000000
1133 2633 1.0000000000000000
1134 1134 1.0000000000000000
1134 2634 1.0000000000000000
1135 1135 1.0000000000000000
1135 2635 1.0000000000000000
1136 1136 1.0000000000000000
1136 2636 1.0000000000000000
1137 1137 1.0000000000000000
1137 2637 1.0000000000000000
1138 1138 1.0000000000000000
1138 2638 1.0000000000000000
1139 1139 1.0000000000000000
1139 2639 1.0000000000000000
1140 1140 1.0000000000000000
1140 2640 1.0000000000000000
1141 1141 1.0000000000000000
1141 2641 1.0000000000000000
1142 1142 1.0000000000000000
1142 2642 1.0000000000000000
1143 1143 1.0000000000000000
1143 2643 1.0000000000000000
1144 1144 1.0000000000000000
1144 2644 1.0000000000000000
1145 1145 1.0000000000000000
1145 2645 1.0000000000000000
1146 1146 1.0000000000000000
1146 2646 1.0000000000000000
1147 1147 1.0000000000000000
1147 2647 1.0000000000000000
1148 1148 1.0000000000000000
1148 2648 1.0000000000000000
1149 1149 1.0000000000000000
1149 2649 1.0000000000000000
1150 1150 1.0000000000000000
1150 2650 1.0000000000000000
1151 1151 1.0000000000000000
1151 2651 1.0000000000000000
1152 1152 1.0000000000000000
1152 2652 1.0000000000000000
1153 1153 1.0000000000000000
1153 2653 1.0000000000000000
1154 1154 1.0000000000000000
1154 2654 1.0000000000000000
1155 1155 1.0000000000000000
1155 2655 1.0000000000000000
1156 1156 1.0000000000000000
1156 2656 1.0000000000000000
1157 1157 1.0000000000000000
1157 2657 1.0000000000000000
1158 1158 1.0000000000000000
1158 2658 1.0000000000000000
1159 1159 1.0000000000000000
1159 2659 1.0000000000000000
1160 1160 1.0000000000000000
1160 2660 1.0000000000000000
1161 1161 1.0000000000000000
1161 2661 1.0000000000000000
1162 1162 1.0000000000000000
1162 2662 1.0000000000000000
1163 1163 1.0000000000000000
1163 2663 1.0000000000000000
1164 1164 1.0000000000000000
1164 2664 1.0000000000000000
1165 1165 1.0000000000000000
1165 2665 1.0000000000000000
1166 1166 1.0000000000000000
1166 2666 1.0000000000000000
1167 1167 1.0000000000000000
1167 2667 1.0000000000000000
1168 1168 1.0000000000000000
1168 2668 1.0000000000000000
1169 1169 1.0000000000000000
1169 2669 1.0000000000000000
1170 1170 1.0000000000000000
1170 2670 1.0000000000000000
1171 1171 1.0000000000000000
1171 2671 1.0000000000000000
1172 1172 1.0000000000000000
1172 2672 1.0000000000000000
1173 1173 1.0000000000000000
1173 2673 1.0000000000000000
1174 1174 1.0000000000000000
1174 2674 1.0000000000000000
1175 1175 1.0000000000000000
1175 2675 1.0000000000000000
1176 1176 1.0000000000000000
1176 2676 1.0000000000000000
1177 1177 1.0000000000000000
1177 2677 1.0000000000000000
1178 1178 1.0000000000000000
1178 2678 1.0000000000000000
1179 1179 1.0000000000000000
1179 2679 1.0000000000000000
1180 1180 1.0000000000000000
1180 2680 1.0000000000000000
1181 1181 1.0000000000000000
1181 2681 1.0000000000000000
1182 1182 1.0000000000000000
1182 2682 1.0000000000000000
1183 1183 1.0000000000000000
1183 2683 1.0000000000000000
1184 1184 1.0000000000000000
1184 2684 1.0000000000000000
1185 1185 1.0000000000000000
1185 2685 1.0000000000000000
1186 1186 1.0000000000000000
1186 2686 1.0000000000000000
1187 1187 1.0000000000000000
1187 2687 1.0000000000000000
1188 1188 1.0000000000000000
1188 2688 1.0000000000000000
1189 1189 1.0000000000000000
1189 2689 1.0000000000000000
1190 1190 1.0000000000000000
1190 2690 1.0000000000000000
1191 1191 1.0000000000000000
1191 2691 1.0000000000000000
1192 1192 1.0000000000000000
1192 2692 1.0000000000000000
1193 1193 1.0000000000000000
1193 2693 1.0000000000000000
1194 1194 1.0000000000000000
1194 2694 1.0000000000000000
1195 1195 1.0000000000000000
1195 2695 1.0000000000000000
1196 1196 1.0000000000000000
1196 2696 1.0000000000000000
1197 1197 1.0000000000000000
1197 2697 1.0000000000000000
1198 1198 1.0000000000000000
1198 2698 1.0000000000000000
1199 1199 1.0000000000000000
1199 2699 1.0000000000000000
1200 1200 1.0000000000000000
1200 2700 1.0000000000000000
1201 1201 1.0000000000000000
1201 2701 1.0000000000000000
1202 1202 1.0000000000000000
1202 2702 1.0000000000000000
1203 1203 1.0000000000000000
1203 2703 1.0000000000000000
1204 1204 1.0000000000000000
1204 2704 1.0000000000000000
1205 1205 1.0000000000000000
1205 2705 1.0000000000000000
1206 1206 1.0000000000000000
1206 2706 1.0000000000000000
1207 1207 1.0000000000000000
1207 2707 1.0000000000000000
1208 1208 1.0000000000000000
1208 2708 1.0000000000000000
1209 1209 1.0000000000000000
1209 2709 1.0000000000000000
1210 1210 1.0000000000000000
1210 2710 1.0000000000000000
1211 1211 1.0000000000000000
1211 2711 1.0000000000000000
1212 1212 1.0000000000000000
1212 2712 1.0000000000000000
1213 1213 1.0000000000000000
1213 2713 1.0000000000000000
1214 1214 1.0000000000000000
1214 2714 1.0000000000000000
1215 1215 1.0000000000000000
1215 2715 1.0000000000000000
1216 1216 1.0000000000000000
1216 2716 1.0000000000000000
1217 1217 1.0000000000000000
1217 2717 1.0000000000000000
1218 1218 1.0000000000000000
1218 2718 1.0000000000000000
1219 1219 1.0000000000000000
1219 2719 1.0000000000000000
1220 1220 1.0000000000000000
1220 2720 1.0000000000000000
1221 1221 1.0000000000000000
1221 2721 1.0000000000000000
1222 1222 1.0000000000000000
1222 2722 1.0000000000000000
1223 1223 1.0000000000000000
1223 2723 1.0000000000000000
1224 1224 1.0000000000000000
1224 2724 1.0000000000000000
1225 1225 1.0000000000000000
1225 2725 1.0000000000000000
1226 1226 1.0000000000000000
1226 2726 1.0000000000000000
1227 1227 1.0000000000000000
1227 2727 1.0000000000000000
1228 1228 1.0000000000000000
1228 2728 1.0000000000000000
1229 1229 1.0000000000000000
1229 2729 1.0000000000000000
1230 1230 1.0000000000000000
1230 2730 1.0000000000000000
1231 1231 1.0000000000000000
1231 2731 1.0000000000000000
1232 1232 1.0000000000000000
1232 2732 1.0000000000000000
1233 1233 1.0000000000000000
1233 2733 1.0000000000000000
1234 1234 1.0000000000000000
1234 2734 1.0000000000000000
1235 1235 1.0000000000000000
1235 2735 1.0000000000000000
1236 1236 1.0000000000000000
1236 2736 1.0000000000000000
1237 1237 1.0000000000000000
1237 2737 1.0000000000000000
1238 1238 1.0000000000000000
1238 2738 1.0000000000000000
1239 1239 1.0000000000000000
1239 2739 1.0000000000000000
1240 1240 1.0000000000000000
1240 2740 1.0000000000000000
1241 1241 1.0000000000000000
1241 2741 1.0000000000000000
1242 1242 1.0000000000000000
1242 2742 1.0000000000000000
1243 1243 1.0000000000000000
1243 2743 1.0000000000000000
1244 1244 1.0000000000000000
1244 2744 1.0000000000000000
1245 1245 1.0000000000000000
1245 2745 1.0000000000000000
1246 1246 1.0000000000000000
1246 2746 1.0000000000000000
1247 1247 1.0000000000000000
1247 2747 1.0000000000000000
1248 1248 1.0000000000000000
1248 2748 1.0000000000000000
1249 1249 1.0000000000000000
1249 2749 1.0000000000000000
1250 1250 1.0000000000000000
1250 2750 1.0000000000000000
1251 1251 1.0000000000000000
1251 2751 1.0000000000000000
1252 1252 1.0000000000000000
1252 2752 1.0000000000000000
1253 1253 1.0000000000000000
1253 2753 1.0000000000000000
1254 1254 1.0000000000000000
1254 2754 1.0000000000000000
1255 1255 1.0000000000000000
1255 2755 1.0000000000000000
1256 1256 1.0000000000000000
1256 2756 1.0000000000000000
1257 1257 1.0000000000000000
1257 2757 1.0000000000000000
1258 1258 1.0000000000000000
1258 2758 1.0000000000000000
1259 1259 1.0000000000000000
1259 2759 1.0000000000000000
1260 1260 1.0000000000000000
1260 2760 1.0000000000000000
1261 1261 1.0000000000000000
1261 2761 1.0000000000000000
1262 1262 1.0000000000000000
1262 2762 1.0000000000000000
1263 1263 1.0000000000000000
1263 2763 1.0000000000000000
1264 1264 1.0000000000000000
1264 2764 1.0000000000000000
1265 1265 1.0000000000000000
1265 2765 1.0000000000000000
1266 1266 1.0000000000000000
1266 2766 1.0000000000000000
1267 1267 1.0000000000000000
1267 2767 1.0000000000000000
1268 1268 1.0000000000000000
1268 2768 1.0000000000000000
1269 1269 1.0000000000000000
1269 2769 1.0000000000000000
1270 1270 1.0000000000000000
1270 2770 1.0000000000000000
1271 1271 1.0000000000000000
1271 2771 1.0000000000000000
1272 1272 1.0000000000000000
1272 2772 1.0000000000000000
1273 1273 1.0000000000000000
1273 2773 1.0000000000000000
1274 1274 1.0000000000000000
1274 2774 1.0000000000000000
1275 1275 1.0000000000000000
1275 2775 1.0000000000000000
1276 1276 1.0000000000000000
1276 2776 1.0000000000000000
1277 1277 1.0000000000000000
1277 2777 1.0000000000000000
1278 1278 1.0000000000000000
1278 2778 1.0000000000000000
1279 1279 1.0000000000000000
1279 2779 1.0000000000000000
1280 1280 1.0000000000000000
1280 2780 1.0000000000000000
1281 1281 1.0000000000000000
1281 2781 1.0000000000000000
1282 1282 1.0000000000000000
1282 2782 1.0000000000000000
1283 1283 1.0000000000000000
1283 2783 1.0000000000000000
1284 1284 1.0000000000000000
1284 2784 1.0000000000000000
1285 1285 1.0000000000000000
1285 2785 1.0000000000000000
1286 1286 1.0000000000000000
1286 2786 1.0000000000000000
1287 1287 1.0000000000000000
1287 2787 1.0000000000000000
1288 1288 1.0000000000000000
1288 2788 1.0000000000000000
1289 1289 1.0000000000000000
1289 2789 1.0000000000000000
1290 1290 1.0000000000000000
1290 2790 1.0000000000000000
1291 1291 1.0000000000000000
1291 2791 1.0000000000000000
1292 1292 1.0000000000000000
1292 2792 1.0000000000000000
1293 1293 1.0000000000000000
1293 2793 1.0000000000000000
1294 1294 1.0000000000000000
1294 2794 1.0000000000000000
1295 1295 1.0000000000000000
1295 2795 1.0000000000000000
1296 1296 1.0000000000000000
1296 2796 1.0000000000000000
1297 1297 1.0000000000000000
1297 2797 1.0000000000000000
1298 1298 1.0000000000000000
1298 2798 1.0000000000000000
1299 1299 1.0000000000000000
1299 2799 1.0000000000000000
1300 1300 1.0000000000000000
1300 2800 1.0000000000000000
1301 1301 1.0000000000000000
1301 2801 1.0000000000000000
1302 1302 1.0000000000000000
1302 2802 1.0000000000000000
1303 1303 1.0000000000000000
1303 2803 1.0000000000000000
1304 1304 1.0000000000000000
1304 2804 1.0000000000000000
1305 1305 1.0000000000000000
1305 2805 1.0000000000000000
1306 1306 1.0000000000000000
1306 2806 1.0000000000000000
1307 1307 1.0000000000000000
1307 2807 1.0000000000000000
1308 1308 1.0000000000000000
1308 2808 1.0000000000000000
1309 1309 1.0000000000000000
1309 2809 1.0000000000000000
1310 1310 1.0000000000000000
1310 2810 1.0000000000000000
1311 1311 1.0000000000000000
1311 2811 1.0000000000000000
1312 1312 1.0000000000000000
1312 2812 1.0000000000000000
1313 1313 1.0000000000000000
1313 2813 1.0000000000000000
1314 1314 1.0000000000000000
1314 2814 1.0000000000000000
1315 1315 1.0000000000000000
1315 2815 1.0000000000000000
1316 1316 1.0000000000000000
1316 2816 1.0000000000000000
1317 1317 1.0000000000000000
1317 2817 1.0000000000000000
1318 1318 1.0000000000000000
1318 2818 1.0000000000000000
1319 1319 1.0000000000000000
1319 2819 1.0000000000000000
1320 1320 1.0000000000000000
1320 2820 1.0000000000000000
1321 1321 1.0000000000000000
1321 2821 1.0000000000000000
1322 1322 1.0000000000000000
1322 2822 1.0000000000000000
1323 1323 1.0000000000000000
1323 2823 1.0000000000000000
1324 1324 1.0000000000000000
1324 2824 1.0000000000000000
1325 1325 1.0000000000000000
1325 2825 1.0000000000000000
1326 1326 1.0000000000000000
1326 2826 1.0000000000000000
1327 1327 1.0000000000000000
1327 2827 1.0000000000000000
1328 1328 1.0000000000000000
1328 2828 1.0000000000000000
1329 1329 1.0000000000000000
1329 2829 1.0000000000000000
1330 1330 1.0000000000000000
1330 2830 1.0000000000000000
1331 1331 1.0000000000000000
1331 2831 1.0000000000000000
1332 1332 1.0000000000000000
1332 2832 1.0000000000000000
1333 1333 1.0000000000000000
1333 2833 1.0000000000000000
1334 1334 1.0000000000000000
1334 2834 1.0000000000000000
1335 1335 1.0000000000000000
1335 2835 1.0000000000000000
1336 1336 1.0000000000000000
1336 2836 1.0000000000000000
1337 1337 1.0000000000000000
1337 2837 1.0000000000000000
1338 1338 1.0000000000000000
1338 2838 1.0000000000000000
1339 1339 1.0000000000000000
1339 2839 1.0000000000000000
1340 1340 1.0000000000000000
1340 2840 1.0000000000000000
1341 1341 1.0000000000000000
1341 2841 1.0000000000000000
1342 1342 1.0000000000000000
1342 2842 1.0000000000000000
1343 1343 1.0000000000000000
1343 2843 1.0000000000000000
1344 1344 1.0000000000000000
1344 2844 1.0000000000000000
1345 1345 1.0000000000000000
1345 2845 1.0000000000000000
1346 1346 1.0000000000000000
1346 2846 1.0000000000000000
1347 1347 1.0000000000000000
1347 2847 1.0000000000000000
1348 1348 1.0000000000000000
1348 2848 1.0000000000000000
1349 1349 1.0000000000000000
1349 2849 1.0000000000000000
1350 1350 1.0000000000000000
1350 2850 1.0000000000000000
1351 1351 1.0000000000000000
1351 2851 1.0000000000000000
1352 1352 1.0000000000000000
1352 2852 1.0000000000000000
1353 1353 1.0000000000000000
1353 2853 1.0000000000000000
1354 1354 1.0000000000000000
1354 2854 1.0000000000000000
1355 1355 1.0000000000000000
1355 2855 1.0000000000000000
1356 1356 1.0000000000000000
1356 2856 1.0000000000000000
1357 1357 1.0000000000000000
1357 2857 1.0000000000000000
1358 1358 1.0000000000000000
1358 2858 1.0000000000000000
1359 1359 1.0000000000000000
1359 2859 1.0000000000000000
1360 1360 1.0000000000000000
1360 2860 1.0000000000000000
1361 1361 1.0000000000000000
1361 2861 1.0000000000000000
1362 1362 1.0000000000000000
1362 2862 1.0000000000000000
1363 1363 1.0000000000000000
1363 2863 1.0000000000000000
1364 1364 1.0000000000000000
1364 2864 1.0000000000000000
1365 1365 1.0000000000000000
1365 2865 1.0000000000000000
1366 1366 1.0000000000000000
1366 2866 1.0000000000000000
1367 1367 1.0000000000000000
1367 2867 1.0000000000000000
1368 1368 1.0000000000000000
1368 2868 1.0000000000000000
1369 1369 1.0000000000000000
1369 2869 1.0000000000000000
1370 1370 1.0000000000000000
1370 2870 1.0000000000000000
1371 1371 1.0000000000000000
1371 2871 1.0000000000000000
1372 1372 1.0000000000000000
1372 2872 1.0000000000000000
1373 1373 1.0000000000000000
1373 2873 1.0000000000000000
1374 1374 1.0000000000000000
1374 2874 1.0000000000000000
1375 1375 1.0000000000000000
1375 2875 1.0000000000000000
1376 1376 1.0000000000000000
1376 2876 1.0000000000000000
1377 1377 1.0000000000000000
1377 2877 1.0000000000000000
1378 1378 1.0000000000000000
1378 2878 1.0000000000000000
1379 1379 1.0000000000000000
1379 2879 1.0000000000000000
1380 1380 1.0000000000000000
1380 2880 1.0000000000000000
1381 1381 1.0000000000000000
1381 2881 1.0000000000000000
1382 1382 1.0000000000000000
1382 2882 1.0000000000000000
1383 1383 1.0000000000000000
1383 2883 1.0000000000000000
1384 1384 1.0000000000000000
1384 2884 1.0000000000000000
1385 1385 1.0000000000000000
1385 2885 1.0000000000000000
1386 1386 1.0000000000000000
1386 2886 1.0000000000000000
1387 1387 1.0000000000000000
1387 2887 1.0000000000000000
1388 1388 1.0000000000000000
1388 2888 1.0000000000000000
1389 1389 1.0000000000000000
1389 2889 1.0000000000000000
1390 1390 1.0000000000000000
1390 2890 1.0000000000000000
1391 1391 1.0000000000000000
1391 2891 1.0000000000000000
1392 1392 1.0000000000000000
1392 2892 1.0000000000000000
1393 1393 1.0000000000000000
1393 2893 1.0000000000000000
1394 1394 1.0000000000000000
1394 2894 1.0000000000000000
1395 1395 1.0000000000000000
1395 2895 1.0000000000000000
1396 1396 1.0000000000000000
1396 2896 1.0000000000000000
1397 1397 1.0000000000000000
1397 2897 1.0000000000000000
1398 1398 1.0000000000000000
1398 2898 1.0000000000000000
1399 1399 1.0000000000000000
1399 2899 1.0000000000000000
1400 1400 1.0000000000000000
1400 2900 1.0000000000000000
1401 1401 1.0000000000000000
1401 2901 1.0000000000000000
1402 1402 1.0000000000000000
1402 2902 1.0000000000000000
1403 1403 1.0000000000000000
1403 2903 1.0000000000000000
1404 1404 1.0000000000000000
1404 2904 1.0000000000000000
1405 1405 1.0000000000000000
1405 2905 1.0000000000000000
1406 1406 1.0000000000000000
1406 2906 1.0000000000000000
1407 1407 1.0000000000000000
1407 2907 1.0000000000000000
1408 1408 1.0000000000000000
1408 2908 1.0000000000000000
1409 1409 1.0000000000000000
1409 2909 1.0000000000000000
1410 1410 1.0000000000000000
1410 2910 1.0000000000000000
1411 1411 1.0000000000000000
1411 2911 1.0000000000000000
1412 1412 1.0000000000000000
1412 2912 1.0000000000000000
1413 1413 1.0000000000000000
1413 2913 1.0000000000000000
1414 1414 1.0000000000000000
1414 2914 1.0000000000000000
1415 1415 1.0000000000000000
1415 2915 1.0000000000000000
1416 1416 1.0000000000000000
1416 2916 1.0000000000000000
1417 1417 1.0000000000000000
1417 2917 1.0000000000000000
1418 1418 1.0000000000000000
1418 2918 1.0000000000000000
1419 1419 1.0000000000000000
1419 2919 1.0000000000000000
1420 1420 1.0000000000000000
1420 2920 1.0000000000000000
1421 1421 1.0000000000000000
1421 2921 1.0000000000000000
1422 1422 1.0000000000000000
1422 2922 1.0000000000000000
1423 1423 1.0000000000000000
1423 2923 1.0000000000000000
1424 1424 1.0000000000000000
1424 2924 1.0000000000000000
1425 1425 1.0000000000000000
1425 2925 1.0000000000000000
1426 1426 1.0000000000000000
1426 2926 1.0000000000000000
1427 1427 1.0000000000000000
1427 2927 1.0000000000000000
1428 1428 1.0000000000000000
1428 2928 1.0000000000000000
1429 1429 1.0000000000000000
1429 2929 1.0000000000000000
1430 1430 1.0000000000000000
1430 2930 1.0000000000000000
1431 1431 1.0000000000000000
1431 2931 1.0000000000000000
1432 1432 1.0000000000000000
1432 2932 1.0000000000000000
1433 1433 1.0000000000000000
1433 2933 1.0000000000000000
1434 1434 1.0000000000000000
1434 2934 1.0000000000000000
1435 1435 1.0000000000000000
1435 2935 1.0000000000000000
1436 1436 1.0000000000000000
1436 2936 1.0000000000000000
1437 1437 1.0000000000000000
1437 2937 1.0000000000000000
1438 1438 1.0000000000000000
1438 2938 1.0000000000000000
1439 1439 1.0000000000000000
1439 2939 1.0000000000000000
1440 1440 1.0000000000000000
1440 2940 1.0000000000000000
1441 1441 1.0000000000000000
1441 2941 1.0000000000000000
1442 1442 1.0000000000000000
1442 2942 1.0000000000000000
1443 1443 1.0000000000000000
1443 2943 1.0000000000000000
1444 1444 1.0000000000000000
1444 2944 1.0000000000000000
1445 1445 1.0000000000000000
1445 2945 1.0000000000000000
1446 1446 1.0000000000000000
1446 2946 1.0000000000000000
1447 1447 1.0000000000000000
1447 2947 1.0000000000000000
1448 1448 1.0000000000000000
1448 2948 1.0000000000000000
1449 1449 1.0000000000000000
1449 2949 1.0000000000000000
1450 1450 1.0000000000000000
1450 2950 1.0000000000000000
1451 1451 1.0000000000000000
1451 2951 1.0000000000000000
1452 1452 1.0000000000000000
1452 2952 1.0000000000000000
1453 1453 1.0000000000000000
1453 2953 1.0000000000000000
1454 1454 1.0000000000000000
1454 2954 1.0000000000000000
1455 1455 1.0000000000000000
1455 2955 1.0000000000000000
1456 1456 1.0000000000000000
1456 2956 1.0000000000000000
1457 1457 1.0000000000000000
1457 2957 1.0000000000000000
1458 1458 1.0000000000000000
1458 2958 1.0000000000000000
1459 1459 1.0000000000000000
1459 2959 1.0000000000000000
1460 1460 1.0000000000000000
1460 2960 1.0000000000000000
1461 1461 1.0000000000000000
1461 2961 1.0000000000000000
1462 1462 1.0000000000000000
1462 2962 1.0000000000000000
1463 1463 1.0000000000000000
1463 2963 1.0000000000000000
1464 1464 1.0000000000000000
1464 2964 1.0000000000000000
1465 1465 1.0000000000000000
1465 2965 1.0000000000000000
1466 1466 1.0000000000000000
1466 2966 1.0000000000000000
1467 1467 1.0000000000000000
1467 2967 1.0000000000000000
1468 1468 1.0000000000000000
1468 2968 1.0000000000000000
1469 1469 1.0000000000000000
1469 2969 1.0000000000000000
1470 1470 1.0000000000000000
1470 2970 1.0000000000000000
1471 1471 1.0000000000000000
1471 2971 1.0000000000000000
1472 1472 1.0000000000000000
1472 2972 1.0000000000000000
1473 1473 1.0000000000000000
1473 2973 1.0000000000000000
1474 1474 1.0000000000000000
1474 2974 1.0000000000000000
1475 1475 1.0000000000000000
1475 2975 1.0000000000000000
1476 1476 1.0000000000000000
1476 2976 1.0000000000000000
1477 1477 1.0000000000000000
1477 2977 1.0000000000000000
1478 1478 1.0000000000000000
1478 2978 1.0000000000000000
1479 1479 1.0000000000000000
1479 2979 1.0000000000000000
1480 1480 1.0000000000000000
1480 2980 1.0000000000000000
1481 1481 1.0000000000000000
1481 2981 1.0000000000000000
1482 1482 1.0000000000000000
1482 2982 1.0000000000000000
1483 1483 1.0000000000000000
1483 2983 1.0000000000000000
1484 1484 1.0000000000000000
1484 2984 1.0000000000000000
1485 1485 1.0000000000000000
1485 2985 1.0000000000000000
1486 1486 1.0000000000000000
1486 2986 1.0000000000000000
1487 1487 1.0000000000000000
1487 2987 1.0000000000000000
1488 1488 1.0000000000000000
1488 2988 1.0000000000000000
1489 1489 1.0000000000000000
1489 2989 1.0000000000000000
1490 1490 1.0000000000000000
1490 2990 1.0000000000000000
1491 1491 1.0000000000000000
1491 2991 1.0000000000000000
1492 1492 1.0000000000000000
1492 2992 1.0000000000000000
1493 1493 1.0000000000000000
1493 2993 1.0000000000000000
1494 1494 1.0000000000000000
1494 2994 1.0000000000000000
1495 1495 1.0000000000000000
1495 2995 1.0000000000000000
1496 1496 1.0000000000000000
1496 2996 1.0000000000000000
1497 1497 1.0000000000000000
1497 2997 1.0000000000000000
1498 1498 1.0000000000000000
1498 2998 1.0000000000000000
1499 1499 1.0000000000000000
1499 2999 1.0000000000000000
1500 1500 1.0000000000000000
1500 3000 1.0000000000000000
1501 1 1.0000000000000000
1501 2 1.0000000000000000
1501 3 1.0000000000000000
1501 4 1.0000000000000000
1501 5 1.0000000000000000
1501 6 1.0000000000000000
1501 7 1.0000000000000000
1501 8 1.0000000000000000
1501 9 1.0000000000000000
1501 10 1.0000000000000000
1501 11 1.0000000000000000
1501 12 1.0000000000000000
1501 13 1.0000000000000000
1501 14 1.0000000000000000
1501 15 1.0000000000000000
1501 16 1.0000000000000000
1501 17 1.0000000000000000
1501 18 1.0000000000000000
1501 19 1.0000000000000000
1501 20 1.0000000000000000
1501 21 1.0000000000000000
1501 22 1.0000000000000000
1501 23 1.0000000000000000
1501 24 1.0000000000000000
1501 25 1.0000000000000000
1501 26 1.0000000000000000
1501 27 1.0000000000000000
1501 28 1.0000000000000000
1501 29 1.0000000000000000
1501 30 1.0000000000000000
1501 31 1.0000000000000000
1501 32 1.0000000000000000
1501 33 1.0000000000000000
1501 34 1.0000000000000000
1501 35 1.0000000000000000
1501 36 1.0000000000000000
1501 37 1.0000000000000000
1501 38 1.0000000000000000
1501 39 1.0000000000000000
1501 40 1.0000000000000000
1501 41 1.0000000000000000
1501 42 1.0000000000000000
1501 43 1.0000000000000000
1501 44 1.0000000000000000
1501 45 1.0000000000000000
1501 46 1.0000000000000000
1501 47 1.0000000000000000
1501 48 1.0000000000000000
1501 49 1.0000000000000000
1501 50 1.0000000000000000
1501 51 1.0000000000000000
1501 52 1.0000000000000000
1501 53 1.0000000000000000
1501 54 1.0000000000000000
1501 55 1.0000000000000000
1501 56 1.0000000000000000
1501 57 1.0000000000000000
1501 58 1.0000000000000000
1501 59 1.0000000000000000
1501 60 1.0000000000000000
1501 61 1.0000000000000000
1501 62 1.0000000000000000
1501 63 1.0000000000000000
1501 64 1.0000000000000000
1501 65 1.0000000000000000
1501 66 1.0000000000000000
1501 67 1.0000000000000000
1501 68 1.0000000000000000
1501 69 1.0000000000000000
1501 70 1.0000000000000000
1501 71 1.0000000000000000
1501 72 1.0000000000000000
1501 73 1.0000000000000000
1501 74 1.0000000000000000
1501 75 1.0000000000000000
1501 76 1.0000000000000000
1501 77 1.0000000000000000
1501 78 1.0000000000000000
1501 79 1.0000000000000000
1501 80 1.0000000000000000
1501 81 1.0000000000000000
1501 82 1.0000000000000000
1501 83 1.0000000000000000
1501 84 1.0000000000000000
1501 85 1.0000000000000000
1501 86 1.0000000000000000
1501 87 1.0000000000000000
1501 88 1.0000000000000000
1501 89 1.0000000000000000
1501 90 1.0000000000000000
1501 91 1.0000000000000000
1501 92 1.0000000000000000
1501 93 1.0000000000000000
1501 94 1.0000000000000000
1501 95 1.0000000000000000
1501 96 1.0000000000000000
1501 97 1.0000000000000000
1501 98 1.0000000000000000
1501 99 1.0000000000000000
1501 100 1.0000000000000000
1501 101 1.0000000000000000
1501 102 1.0000000000000000
1501 103 1.0000000000000000
1501 104 1.0000000000000000
1501 105 1.0000000000000000
1501 106 1.0000000000000000
1501 107 1.0000000000000000
1501 108 1.0000000000000000
1501 109 1.0000000000000000
1501 110 1.0000000000000000
1501 111 1.0000000000000000
1501 112 1.0000000000000000
1501 113 1.0000000000000000
1501 114 1.0000000000000000
1501 115 1.0000000000000000
1501 116 1.0000000000000000
1501 117 1.0000000000000000
1501 118 1.0000000000000000
1501 119 1.0000000000000000
1501 120 1.0000000000000000
1501 121 1.0000000000000000
1501 122 1.0000000000000000
1501 123 1.0000000000000000
1501 124 1.0000000000000000
1501 125 1.0000000000000000
1501 126 1.0000000000000000
1501 127 1.0000000000000000
1501 128 1.0000000000000000
1501 129 1.0000000000000000
1501 130 1.0000000000000000
1501 131 1.0000000000000000
1501 132 1.0000000000000000
1501 133 1.0000000000000000
1501 134 1.0000000000000000
1501 135 1.0000000000000000
1501 136 1.0000000000000000
1501 137 1.0000000000000000
1501 138 1.0000000000000000
1501 139 1.0000000000000000
1501 140 1.0000000000000000
1501 141 1.0000000000000000
1501 142 1.0000000000000000
1501 143 1.0000000000000000
1501 144 1.0000000000000000
1501 145 1.0000000000000000
1501 146 1.0000000000000000
1501 147 1.0000000000000000
1501 148 1.0000000000000000
1501 149 1.0000000000000000
1501 150 1.0000000000000000
1501 151 1.0000000000000000
1501 152 1.0000000000000000
1501 153 1.0000000000000000
1501 154 1.0000000000000000
1501 155 1.0000000000000000
1501 156 1.0000000000000000
1501 157 1.0000000000000000
1501 158 1.0000000000000000
1501 159 1.0000000000000000
1501 160 1.0000000000000000
1501 161 1.0000000000000000
1501 162 1.0000000000000000
1501 163 1.0000000000000000
1501 164 1.0000000000000000
1501 165 1.0000000000000000
1501 166 1.0000000000000000
1501 167 1.0000000000000000
1501 168 1.0000000000000000
1501 169 1.0000000000000000
1501 170 1.0000000000000000
1501 171 1.0000000000000000
1501 172 1.0000000000000000
1501 173 1.0000000000000000
1501 174 1.0000000000000000
1501 175 1.0000000000000000
1501 176 1.0000000000000000
1501 177 1.0000000000000000
1501 178 1.0000000000000000
1501 179 1.0000000000000000
1501 180 1.0000000000000000
1501 181 1.0000000000000000
1501 182 1.0000000000000000
1501 183 1.0000000000000000
1501 184 1.0000000000000000
1501 185 1.0000000000000000
1501 186 1.0000000000000000
1501 187 1.0000000000000000
1501 188 1.0000000000000000
1501 189 1.0000000000000000
1501 190 1.0000000000000000
1501 191 1.0000000000000000
1501 192 1.0000000000000000
1501 193 1.0000000000000000
1501 194 1.0000000000000000
1501 195 1.0000000000000000
1501 196 1.0000000000000000
1501 197 1.0000000000000000
1501 198 1.0000000000000000
1501 199 1.0000000000000000
1501 200 1.0000000000000000
1501 201 1.0000000000000000
1501 202 1.0000000000000000
1501 203 1.0000000000000000
1501 204 1.0000000000000000
1501 205 1.0000000000000000
1501 206 1.0000000000000000
1501 207 1.0000000000000000
1501 208 1.0000000000000000
1501 209 1.0000000000000000
1501 210 1.0000000000000000
1501 211 1.0000000000000000
1501 212 1.0000000000000000
1501 213 1.0000000000000000
1501 214 1.0000000000000000
1501 215 1.0000000000000000
1501 216 1.0000000000000000
1501 217 1.0000000000000000
1501 218 1.0000000000000000
1501 219 1.0000000000000000
1501 220 1.0000000000000000
1501 221 1.0000000000000000
1501 222 1.0000000000000000
1501 223 1.0000000000000000
1501 224 1.0000000000000000
1501 225 1.0000000000000000
1501 226 1.0000000000000000
1501 227 1.0000000000000000
1501 228 1.0000000000000000
1501 229 1.0000000000000000
1501 230 1.0000000000000000
1501 231 1.0000000000000000
1501 232 1.0000000000000000
1501 233 1.0000000000000000
1501 234 1.0000000000000000
1501 235 1.0000000000000000
1501 236 1.0000000000000000
1501 237 1.0000000000000000
1501 238 1.0000000000000000
1501 239 1.0000000000000000
1501 240 1.0000000000000000
1501 241 1.0000000000000000
1501 242 1.0000000000000000
1501 243 1.0000000000000000
1501 244 1.0000000000000000
1501 245 1.0000000000000000
1501 246 1.0000000000000000
1501 247 1.0000000000000000
1501 248 1.0000000000000000
1501 249 1.0000000000000000
1501 250 1.0000000000000000
1501 251 1.0000000000000000
1501 252 1.0000000000000000
1501 253 1.0000000000000000
1501 254 1.0000000000000000
1501 255 1.0000000000000000
1501 256 1.0000000000000000
1501 257 1.0000000000000000
1501 258 1.0000000000000000
1501 259 1.0000000000000000
1501 260 1.0000000000000000
1501 261 1.0000000000000000
1501 262 1.0000000000000000
1501 263 1.0000000000000000
1501 264 1.0000000000000000
1501 265 1.0000000000000000
1501 266 1.0000000000000000
1501 267 1.0000000000000000
1501 268 1.0000000000000000
1501 269 1.0000000000000000
1501 270 1.0000000000000000
1501 271 1.0000000000000000
1501 272 1.0000000000000000
1501 273 1.0000000000000000
1501 274 1.0000000000000000
1501 275 1.0000000000000000
1501 276 1.0000000000000000
1501 277 1.0000000000000000
1501 278 1.0000000000000000
1501 279 1.0000000000000000
1501 280 1.0000000000000000
1501 281 1.0000000000000000
1501 282 1.0000000000000000
1501 283 1.0000000000000000
1501 284 1.0000000000000000
1501 285 1.0000000000000000
1501 286 1.0000000000000000
1501 287 1.0000000000000000
1501 288 1.0000000000000000
1501 289 1.0000000000000000
1501 290 1.0000000000000000
1501 291 1.0000000000000000
1501 292 1.0000000000000000
1501 293 1.0000000000000000
1501 294 1.0000000000000000
1501 295 1.0000000000000000
1501 296 1.0000000000000000
1501 297 1.0000000000000000
1501 298 1.0000000000000000
1501 299 1.0000000000000000
1501 300 1.0000000000000000
1501 301 1.0000000000000000
1501 302 1.0000000000000000
1501 303 1.0000000000000000
1501 304 1.0000000000000000
1501 305 1.0000000000000000
1501 306 1.0000000000000000
1501 307 1.0000000000000000
1501 308 1.0000000000000000
1501 309 1.0000000000000000
1501 310 1.0000000000000000
1501 311 1.0000000000000000
1501 312 1.0000000000000000
1501 313 1.0000000000000000
1501 314 1.0000000000000000
1501 315 1.0000000000000000
1501 316 1.0000000000000000
1501 317 1.0000000000000000
1501 318 1.0000000000000000
1501 319 1.0000000000000000
1501 320 1.0000000000000000
1501 321 1.0000000000000000
1501 322 1.0000000000000000
1501 323 1.0000000000000000
1501 324 1.0000000000000000
1501 325 1.0000000000000000
1501 326 1.0000000000000000
1501 327 1.0000000000000000
1501 328 1.0000000000000000
1501 329 1.0000000000000000
1501 330 1.0000000000000000
1501 331 1.0000000000000000
1501 332 1.0000000000000000
1501 333 1.0000000000000000
1501 334 1.0000000000000000
1501 335 1.0000000000000000
1501 336 1.0000000000000000
1501 337 1.0000000000000000
1501 338 1.0000000000000000
1501 339 1.0000000000000000
1501 340 1.0000000000000000
1501 341 1.0000000000000000
1501 342 1.0000000000000000
1501 343 1.0000000000000000
1501 344 1.0000000000000000
1501 345 1.0000000000000000
1501 346 1.0000000000000000
1501 347 1.0000000000000000
1501 348 1.0000000000000000
1501 349 1.0000000000000000
1501 350 1.0000000000000000
1501 351 1.0000000000000000
1501 352 1.0000000000000000
1501 353 1.0000000000000000
1501 354 1.0000000000000000
1501 355 1.0000000000000000
1501 356 1.0000000000000000
1501 357 1.0000000000000000
1501 358 1.0000000000000000
1501 359 1.0000000000000000
1501 360 1.0000000000000000
1501 361 1.0000000000000000
1501 362 1.0000000000000000
1501 363 1.0000000000000000
1501 364 1.0000000000000000
1501 365 1.0000000000000000
1501 366 1.0000000000000000
1501 367 1.0000000000000000
1501 368 1.0000000000000000
1501 369 1.0000000000000000
1501 370 1.0000000000000000
1501 371 1.0000000000000000
1501 372 1.0000000000000000
1501 373 1.0000000000000000
1501 374 1.0000000000000000
1501 375 1.0000000000000000
1501 376 1.0000000000000000
1501 377 1.0000000000000000
1501 378 1.0000000000000000
1501 379 1.0000000000000000
1501 380 1.0000000000000000
1501 381 1.0000000000000000
1501 382 1.0000000000000000
1501 383 1.0000000000000000
1501 384 1.0000000000000000
1501 385 1.0000000000000000
1501 386 1.0000000000000000
1501 387 1.0000000000000000
1501 388 1.0000000000000000
1501 389 1.0000000000000000
1501 390 1.0000000000000000
1501 391 1.0000000000000000
1501 392 1.0000000000000000
1501 393 1.0000000000000000
1501 394 1.0000000000000000
1501 395 1.0000000000000000
1501 396 1.0000000000000000
1501 397 1.0000000000000000
1501 398 1.0000000000000000
1501 399 1.0000000000000000
1501 400 1.0000000000000000
1501 401 1.0000000000000000
1501 402 1.0000000000000000
1501 403 1.0000000000000000
1501 404 1.0000000000000000
1501 405 1.0000000000000000
1501 406 1.0000000000000000
1501 407 1.0000000000000000
1501 408 1.0000000000000000
1501 409 1.0000000000000000
1501 410 1.0000000000000000
1501 411 1.0000000000000000
1501 412 1.0000000000000000
1501 413 1.0000000000000000
1501 414 1.0000000000000000
1501 415 1.0000000000000000
1501 416 1.0000000000000000
1501 417 1.0000000000000000
1501 418 1.0000000000000000
1501 419 1.0000000000000000
1501 420 1.0000000000000000
1501 421 1.0000000000000000
1501 422 1.0000000000000000
1501 423 1.0000000000000000
1501 424 1.0000000000000000
1501 425 1.0000000000000000
1501 426 1.0000000000000000
1501 427 1.0000000000000000
1501 428 1.0000000000000000
1501 429 1.0000000000000000
1501 430 1.0000000000000000
1501 431 1.0000000000000000
1501 432 1.0000000000000000
1501 433 1.0000000000000000
1501 434 1.0000000000000000
1501 435 1.0000000000000000
1501 436 1.0000000000000000
1501 437 1.0000000000000000
1501 438 1.0000000000000000
1501 439 1.0000000000000000
1501 440 1.0000000000000000
1501 441 1.0000000000000000
1501 442 1.0000000000000000
1501 443 1.0000000000000000
1501 444 1.0000000000000000
1501 445 1.0000000000000000
1501 446 1.0000000000000000
1501 447 1.0000000000000000
1501 448 1.0000000000000000
1501 449 1.0000000000000000
1501 450 1.0000000000000000
1501 451 1.0000000000000000
1501 452 1.0000000000000000
1501 453 1.0000000000000000
1501 454 1.0000000000000000
1501 455 1.0000000000000000
1501 456 1.0000000000000000
1501 457 1.0000000000000000
1501 458 1.0000000000000000
1501 459 1.0000000000000000
1501 460 1.0000000000000000
1501 461 1.0000000000000000
1501 462 1.0000000000000000
1501 463 1.0000000000000000
1501 464 1.0000000000000000
1501 465 1.0000000000000000
1501 466 1.0000000000000000
1501 467 1.0000000000000000
1501 468 1.0000000000000000
1501 469 1.0000000000000000
1501 470 1.0000000000000000
1501 471 1.0000000000000000
1501 472 1.0000000000000000
1501 473 1.0000000000000000
1501 474 1.0000000000000000
1501 475 1.0000000000000000
1501 476 1.0000000000000000
1501 477 1.0000000000000000
1501 478 1.0000000000000000
1501 479 1.0000000000000000
1501 480 1.0000000000000000
1501 481 1.0000000000000000
1501 482 1.0000000000000000
1501 483 1.0000000000000000
1501 484 1.0000000000000000
1501 485 1.0000000000000000
1501 486 1.0000000000000000
1501 487 1.0000000000000000
1501 488 1.0000000000000000
1501 489 1.0000000000000000
1501 490 1.0000000000000000
1501 491 1.0000000000000000
1501 492 1.0000000000000000
1501 493 1.0000000000000000
1501 494 1.0000000000000000
1501 495 1.0000000000000000
1501 496 1.0000000000000000
1501 497 1.0000000000000000
1501 498 1.0000000000000000
1501 499 1.0000000000000000
1501 500 1.0000000000000000
1501 501 1.0000000000000000
1501 502 1.0000000000000000
1501 503 1.0000000000000000
1501 504 1.0000000000000000
1501 505 1.0000000000000000
1501 506 1.0000000000000000
1501 507 1.0000000000000000
1501 508 1.0000000000000000
1501 509 1.0000000000000000
1501 510 1.0000000000000000
1501 511 1.0000000000000000
1501 512 1.0000000000000000
1501 513 1.0000000000000000
1501 514 1.0000000000000000
1501 515 1.0000000000000000
1501 516 1.0000000000000000
1501 517 1.0000000000000000
1501 518 1.0000000000000000
1501 519 1.0000000000000000
1501 520 1.0000000000000000
1501 521 1.0000000000000000
1501 522 1.0000000000000000
1501 523 1.0000000000000000
1501 524 1.0000000000000000
1501 525 1.0000000000000000
1501 526 1.0000000000000000
1501 527 1.0000000000000000
1501 528 1.0000000000000000
1501 529 1.0000000000000000
1501 530 1.0000000000000000
1501 531 1.0000000000000000
1501 532 1.0000000000000000
1501 533 1.0000000000000000
1501 534 1.0000000000000000
1501 535 1.0000000000000000
1501 536 1.0000000000000000
1501 537 1.0000000000000000
1501 538 1.0000000000000000
1501 539 1.0000000000000000
1501 540 1.0000000000000000
1501 541 1.0000000000000000
1501 542 1.0000000000000000
1501 543 1.0000000000000000
1501 544 1.0000000000000000
1501 545 1.0000000000000000
1501 546 1.0000000000000000
1501 547 1.0000000000000000
1501 548 1.0000000000000000
1501 549 1.0000000000000000
1501 550 1.0000000000000000
1501 551 1.0000000000000000
1501 552 1.0000000000000000
1501 553 1.0000000000000000
1501 554 1.0000000000000000
1501 555 1.0000000000000000
1501 556 1.0000000000000000
1501 557 1.0000000000000000
1501 558 1.0000000000000000
1501 559 1.0000000000000000
1501 560 1.0000000000000000
1501 561 1.0000000000000000
1501 562 1.0000000000000000
1501 563 1.0000000000000000
1501 564 1.0000000000000000
1501 565 1.0000000000000000
1501 566 1.0000000000000000
1501 567 1.0000000000000000
1501 568 1.0000000000000000
1501 569 1.0000000000000000
1501 570 1.0000000000000000
1501 571 1.0000000000000000
1501 572 1.0000000000000000
1501 573 1.0000000000000000
1501 574 1.0000000000000000
1501 575 1.0000000000000000
1501 576 1.0000000000000000
1501 577 1.0000000000000000
1501 578 1.0000000000000000
1501 579 1.0000000000000000
1501 580 1.0000000000000000
1501 581 1.0000000000000000
1501 582 1.0000000000000000
1501 583 1.0000000000000000
1501 584 1.0000000000000000
1501 585 1.0000000000000000
1501 586 1.0000000000000000
1501 587 1.0000000000000000
1501 588 1.0000000000000000
1501 589 1.0000000000000000
1501 590 1.0000000000000000
1501 591 1.0000000000000000
1501 592 1.0000000000000000
1501 593 1.0000000000000000
1501 594 1.0000000000000000
1501 595 1.0000000000000000
1501 596 1.0000000000000000
1501 597 1.0000000000000000
1501 598 1.0000000000000000
1501 599 1.0000000000000000
1501 600 1.0000000000000000
1501 601 1.0000000000000000
1501 602 1.0000000000000000
1501 603 1.0000000000000000
1501 604 1.0000000000000000
1501 605 1.0000000000000000
1501 606 1.0000000000000000
1501 607 1.0000000000000000
1501 608 1.0000000000000000
1501 609 1.0000000000000000
1501 610 1.0000000000000000
1501 611 1.0000000000000000
1501 612 1.0000000000000000
1501 613 1.0000000000000000
1501 614 1.0000000000000000
1501 615 1.0000000000000000
1501 616 1.0000000000000000
1501 617 1.0000000000000000
1501 618 1.0000000000000000
1501 619 1.0000000000000000
1501 620 1.0000000000000000
1501 621 1.0000000000000000
1501 622 1.0000000000000000
1501 623 1.0000000000000000
1501 624 1.0000000000000000
1501 625 1.0000000000000000
1501 626 1.0000000000000000
1501 627 1.0000000000000000
1501 628 1.0000000000000000
1501 629 1.0000000000000000
1501 630 1.0000000000000000
1501 631 1.0000000000000000
1501 632 1.0000000000000000
1501 633 1.0000000000000000
1501 634 1.0000000000000000
1501 635 1.0000000000000000
1501 636 1.0000000000000000
1501 637 1.0000000000000000
1501 638 1.0000000000000000
1501 639 1.0000000000000000
1501 640 1.0000000000000000
1501 641 1.0000000000000000
1501 642 1.0000000000000000
1501 643 1.0000000000000000
1501 644 1.0000000000000000
1501 645 1.0000000000000000
1501 646 1.0000000000000000
1501 647 1.0000000000000000
1501 648 1.0000000000000000
1501 649 1.0000000000000000
1501 650 1.0000000000000000
1501 651 1.0000000000000000
1501 652 1.0000000000000000
1501 653 1.0000000000000000
1501 654 1.0000000000000000
1501 655 1.0000000000000000
1501 656 1.0000000000000000
1501 657 1.0000000000000000
1501 658 1.0000000000000000
1501 659 1.0000000000000000
1501 660 1.0000000000000000
1501 661 1.0000000000000000
1501 662 1.0000000000000000
1501 663 1.0000000000000000
1501 664 1.0000000000000000
1501 665 1.0000000000000000
1501 666 1.0000000000000000
1501 667 1.0000000000000000
1501 668 1.0000000000000000
1501 669 1.0000000000000000
1501 670 1.0000000000000000
1501 671 1.0000000000000000
1501 672 1.0000000000000000
1501 673 1.0000000000000000
1501 674 1.0000000000000000
1501 675 1.0000000000000000
1501 676 1.0000000000000000
1501 677 1.0000000000000000
1501 678 1.0000000000000000
1501 679 1.0000000000000000
1501 680 1.0000000000000000
1501 681 1.0000000000000000
1501 682 1.0000000000000000
1501 683 1.0000000000000000
1501 684 1.0000000000000000
1501 685 1.0000000000000000
1501 686 1.0000000000000000
1501 687 1.0000000000000000
1501 688 1.0000000000000000
1501 689 1.0000000000000000
1501 690 1.0000000000000000
1501 691 1.0000000000000000
1501 692 1.0000000000000000
1501 693 1.0000000000000000
1501 694 1.0000000000000000
1501 695 1.0000000000000000
1501 696 1.0000000000000000
1501 697 1.0000000000000000
1501 698 1.0000000000000000
1501 699 1.0000000000000000
1501 700 1.0000000000000000
1501 701 1.0000000000000000
1501 702 1.0000000000000000
1501 703 1.0000000000000000
1501 704 1.0000000000000000
1501 705 1.0000000000000000
1501 706 1.0000000000000000
1501 707 1.0000000000000000
1501 708 1.0000000000000000
1501 709 1.0000000000000000
1501 710 1.0000000000000000
1501 711 1.0000000000000000
1501 712 1.0000000000000000
1501 713 1.0000000000000000
1501 714 1.0000000000000000
1501 715 1.0000000000000000
1501 716 1.0000000000000000
1501 717 1.0000000000000000
1501 718 1.0000000000000000
1501 719 1.0000000000000000
1501 720 1.0000000000000000
1501 721 1.0000000000000000
1501 722 1.0000000000000000
1501 723 1.0000000000000000
1501 724 1.0000000000000000
1501 725 1.0000000000000000
1501 726 1.0000000000000000
1501 727 1.0000000000000000
1501 728 1.0000000000000000
1501 729 1.0000000000000000
1501 730 1.0000000000000000
1501 731 1.0000000000000000
1501 732 1.0000000000000000
1501 733 1.0000000000000000
1501 734 1.0000000000000000
1501 735 1.0000000000000000
1501 736 1.0000000000000000
1501 737 1.0000000000000000
1501 738 1.0000000000000000
1501 739 1.0000000000000000
1501 740 1.0000000000000000
1501 741 1.0000000000000000
1501 742 1.0000000000000000
1501 743 1.0000000000000000
1501 744 1.0000000000000000
1501 745 1.0000000000000000
1501 746 1.0000000000000000
1501 747 1.0000000000000000
1501 748 1.0000000000000000
1501 749 1.0000000000000000
1501 750 1.0000000000000000
1501 751 1.0000000000000000
1501 752 1.0000000000000000
1501 753 1.0000000000000000
1501 754 1.0000000000000000
1501 755 1.0000000000000000
1501 756 1.0000000000000000
1501 757 1.0000000000000000
1501 758 1.0000000000000000
1501 759 1.0000000000000000
1501 760 1.0000000000000000
1501 761 1.0000000000000000
1501 762 1.0000000000000000
1501 763 1.0000000000000000
1501 764 1.0000000000000000
1501 765 1.0000000000000000
1501 766 1.0000000000000000
1501 767 1.0000000000000000
1501 768 1.0000000000000000
1501 769 1.0000000000000000
1501 770 1.0000000000000000
1501 771 1.0000000000000000
1501 772 1.0000000000000000
1501 773 1.0000000000000000
1501 774 1.0000000000000000
1501 775 1.0000000000000000
1501 776 1.0000000000000000
1501 777 1.0000000000000000
1501 778 1.0000000000000000
1501 779 1.0000000000000000
1501 780 1.0000000000000000
1501 781 1.0000000000000000
1501 782 1.0000000000000000
1501 783 1.0000000000000000
1501 784 1.0000000000000000
1501 785 1.0000000000000000
1501 786 1.0000000000000000
1501 787 1.0000000000000000
1501 788 1.0000000000000000
1501 789 1.0000000000000000
1501 790 1.0000000000000000
1501 791 1.0000000000000000
1501 792 1.0000000000000000
1501 793 1.0000000000000000
1501 794 1.0000000000000000
1501 795 1.0000000000000000
1501 796 1.0000000000000000
1501 797 1.0000000000000000
1501 798 1.0000000000000000
1501 799 1.0000000000000000
1501 800 1.0000000000000000
1501 801 1.0000000000000000
1501 802 1.0000000000000000
1501 803 1.0000000000000000
1501 804 1.0000000000000000
1501 805 1.0000000000000000
1501 806 1.0000000000000000
1501 807 1.0000000000000000
1501 808 1.0000000000000000
1501 809 1.0000000000000000
1501 810 1.0000000000000000
1501 811 1.0000000000000000
1501 812 1.0000000000000000
1501 813 1.0000000000000000
1501 814 1.0000000000000000
1501 815 1.0000000000000000
1501 816 1.0000000000000000
1501 817 1.0000000000000000
1501 818 1.0000000000000000
1501 819 1.0000000000000000
1501 820 1.0000000000000000
1501 821 1.0000000000000000
1501 822 1.0000000000000000
1501 823 1.0000000000000000
1501 824 1.0000000000000000
1501 825 1.0000000000000000
1501 826 1.0000000000000000
1501 827 1.0000000000000000
1501 828 1.0000000000000000
1501 829 1.0000000000000000
1501 830 1.0000000000000000
1501 831 1.0000000000000000
1501 832 1.0000000000000000
1501 833 1.0000000000000000
1501 834 1.0000000000000000
1501 835 1.0000000000000000
1501 836 1.0000000000000000
1501 837 1.0000000000000000
1501 838 1.0000000000000000
1501 839 1.0000000000000000
1501 840 1.0000000000000000
1501 841 1.0000000000000000
1501 842 1.0000000000000000
1501 843 1.0000000000000000
1501 844 1.0000000000000000
1501 845 1.0000000000000000
1501 846 1.0000000000000000
1501 847 1.0000000000000000
1501 848 1.0000000000000000
1501 849 1.0000000000000000
1501 850 1.0000000000000000
1501 851 1.0000000000000000
1501 852 1.0000000000000000
1501 853 1.0000000000000000
1501 854 1.0000000000000000
1501 855 1.0000000000000000
1501 856 1.0000000000000000
1501 857 1.0000000000000000
1501 858 1.0000000000000000
1501 859 1.0000000000000000
1501 860 1.0000000000000000
1501 861 1.0000000000000000
1501 862 1.0000000000000000
1501 863 1.0000000000000000
1501 864 1.0000000000000000
1501 865 1.0000000000000000
1501 866 1.0000000000000000
1501 867 1.0000000000000000
1501 868 1.0000000000000000
1501 869 1.0000000000000000
1501 870 1.0000000000000000
1501 871 1.0000000000000000
1501 872 1.0000000000000000
1501 873 1.0000000000000000
1501 874 1.0000000000000000
1501 875 1.0000000000000000
1501 876 1.0000000000000000
1501 877 1.0000000000000000
1501 878 1.0000000000000000
1501 879 1.0000000000000000
1501 880 1.0000000000000000
1501 881 1.0000000000000000
1501 882 1.0000000000000000
1501 883 1.0000000000000000
1501 884 1.0000000000000000
1501 885 1.0000000000000000
1501 886 1.0000000000000000
1501 887 1.0000000000000000
1501 888 1.0000000000000000
1501 889 1.0000000000000000
1501 890 1.0000000000000000
1501 891 1.0000000000000000
1501 892 1.0000000000000000
1501 893 1.0000000000000000
1501 894 1.0000000000000000
1501 895 1.0000000000000000
1501 896 1.0000000000000000
1501 897 1.0000000000000000
1501 898 1.0000000000000000
1501 899 1.0000000000000000
1501 900 1.0000000000000000
1501 901 1.0000000000000000
1501 902 1.0000000000000000
1501 903 1.0000000000000000
1501 904 1.0000000000000000
1501 905 1.0000000000000000
1501 906 1.0000000000000000
1501 907 1.0000000000000000
1501 908 1.0000000000000000
1501 909 1.0000000000000000
1501 910 1.0000000000000000
1501 911 1.0000000000000000
1501 912 1.0000000000000000
1501 913 1.0000000000000000
1501 914 1.0000000000000000
1501 915 1.0000000000000000
1501 916 1.0000000000000000
1501 917 1.0000000000000000
1501 918 1.0000000000000000
1501 919 1.0000000000000000
1501 920 1.0000000000000000
1501 921 1.0000000000000000
1501 922 1.0000000000000000
1501 923 1.0000000000000000
1501 924 1.0000000000000000
1501 925 1.0000000000000000
1501 926 1.0000000000000000
1501 927 1.0000000000000000
1501 928 1.0000000000000000
1501 929 1.0000000000000000
1501 930 1.0000000000000000
1501 931 1.0000000000000000
1501 932 1.0000000000000000
1501 933 1.0000000000000000
1501 934 1.0000000000000000
1501 935 1.0000000000000000
1501 936 1.0000000000000000
1501 937 1.0000000000000000
1501 938 1.0000000000000000
1501 939 1.0000000000000000
1501 940 1.0000000000000000
1501 941 1.0000000000000000
1501 942 1.0000000000000000
1501 943 1.0000000000000000
1501 944 1.0000000000000000
1501 945 1.0000000000000000
1501 946 1.0000000000000000
1501 947 1.0000000000000000
1501 948 1.0000000000000000
1501 949 1.0000000000000000
1501 950 1.0000000000000000
1501 951 1.0000000000000000
1501 952 1.0000000000000000
1501 953 1.0000000000000000
1501 954 1.0000000000000000
1501 955 1.0000000000000000
1501 956 1.0000000000000000
1501 957 1.0000000000000000
1501 958 1.0000000000000000
1501 959 1.0000000000000000
1501 960 1.0000000000000000
1501 961 1.0000000000000000
1501 962 1.0000000000000000
1501 963 1.0000000000000000
1501 964 1.0000000000000000
1501 965 1.0000000000000000
1501 966 1.0000000000000000
1501 967 1.0000000000000000
1501 968 1.0000000000000000
1501 969 1.0000000000000000
1501 970 1.0000000000000000
1501 971 1.0000000000000000
1501 972 1.0000000000000000
1501 973 1.0000000000000000
1501 974 1.0000000000000000
1501 975 1.0000000000000000
1501 976 1.0000000000000000
1501 977 1.0000000000000000
1501 978 1.0000000000000000
1501 979 1.0000000000000000
1501 980 1.0000000000000000
1501 981 1.0000000000000000
1501 982 1.0000000000000000
1501 983 1.0000000000000000
1501 984 1.0000000000000000
1501 985 1.0000000000000000
1501 986 1.0000000000000000
1501 987 1.0000000000000000
1501 988 1.0000000000000000
1501 989 1.0000000000000000
1501 990 1.0000000000000000
1501 991 1.0000000000000000
1501 992 1.0000000000000000
1501 993 1.0000000000000000
1501 994 1.0000000000000000
1501 995 1.0000000000000000
1501 996 1.0000000000000000
1501 997 1.0000000000000000
1501 998 1.0000000000000000
1501 999 1.0000000000000000
1501 1000 1.0000000000000000
1501 1001 1.0000000000000000
1501 1002 1.0000000000000000
1501 1003 1.0000000000000000
1501 1004 1.0000000000000000
1501 1005 1.0000000000000000
1501 1006 1.0000000000000000
1501 1007 1.0000000000000000
1501 1008 1.0000000000000000
1501 1009 1.0000000000000000
1501 1010 1.0000000000000000
1501 1011 1.0000000000000000
1501 1012 1.0000000000000000
1501 1013 1.0000000000000000
1501 1014 1.0000000000000000
1501 1015 1.0000000000000000
1501 1016 1.0000000000000000
1501 1017 1.0000000000000000
1501 1018 1.0000000000000000
1501 1019 1.0000000000000000
1501 1020 1.0000000000000000
1501 1021 1.0000000000000000
1501 1022 1.0000000000000000
1501 1023 1.0000000000000000
1501 1024 1.0000000000000000
1501 1025 1.0000000000000000
1501 1026 1.0000000000000000
1501 1027 1.0000000000000000
1501 1028 1.0000000000000000
1501 1029 1.0000000000000000
1501 1030 1.0000000000000000
1501 1031 1.0000000000000000
1501 1032 1.0000000000000000
1501 1033 1.0000000000000000
1501 1034 1.0000000000000000
1501 1035 1.0000000000000000
1501 1036 1.0000000000000000
1501 1037 1.0000000000000000
1501 1038 1.0000000000000000
1501 1039 1.0000000000000000
1501 1040 1.0000000000000000
1501 1041 1.0000000000000000
1501 1042 1.0000000000000000
1501 1043 1.0000000000000000
1501 1044 1.0000000000000000
1501 1045 1.0000000000000000
1501 1046 1.0000000000000000
1501 1047 1.0000000000000000
1501 1048 1.0000000000000000
1501 1049 1.0000000000000000
1501 1050 1.0000000000000000
1501 1051 1.0000000000000000
1501 1052 1.0000000000000000
1501 1053 1.0000000000000000
1501 1054 1.0000000000000000
1501 1055 1.0000000000000000
1501 1056 1.0000000000000000
1501 1057 1.0000000000000000
1501 1058 1.0000000000000000
1501 1059 1.0000000000000000
1501 1060 1.0000000000000000
1501 1061 1.0000000000000000
1501 1062 1.0000000000000000
1501 1063 1.0000000000000000
1501 1064 1.0000000000000000
1501 1065 1.0000000000000000
1501 1066 1.0000000000000000
1501 1067 1.0000000000000000
1501 1068 1.0000000000000000
1501 1069 1.0000000000000000
1501 1070 1.0000000000000000
1501 1071 1.0000000000000000
1501 1072 1.0000000000000000
1501 1073 1.0000000000000000
1501 1074 1.0000000000000000
1501 1075 1.0000000000000000
1501 1076 1.0000000000000000
1501 1077 1.0000000000000000
1501 1078 1.0000000000000000
1501 1079 1.0000000000000000
1501 1080 1.0000000000000000
1501 1081 1.0000000000000000
1501 1082 1.0000000000000000
1501 1083 1.0000000000000000
1501 1084 1.0000000000000000
1501 1085 1.0000000000000000
1501 1086 1.0000000000000000
1501 1087 1.0000000000000000
1501 1088 1.0000000000000000
1501 1089 1.0000000000000000
1501 1090 1.0000000000000000
1501 1091 1.0000000000000000
1501 1092 1.0000000000000000
1501 1093 1.0000000000000000
1501 1094 1.0000000000000000
1501 1095 1.0000000000000000
1501 1096 1.0000000000000000
1501 1097 1.0000000000000000
1501 1098 1.0000000000000000
1501 1099 1.0000000000000000
1501 1100 1.0000000000000000
1501 1101 1.0000000000000000
1501 1102 1.0000000000000000
1501 1103 1.0000000000000000
1501 1104 1.0000000000000000
1501 1105 1.0000000000000000
1501 1106 1.0000000000000000
1501 1107 1.0000000000000000
1501 1108 1.0000000000000000
1501 1109 1.0000000000000000
1501 1110 1.0000000000000000
1501 1111 1.0000000000000000
1501 1112 1.0000000000000000
1501 1113 1.0000000000000000
1501 1114 1.0000000000000000
1501 1115 1.0000000000000000
1501 1116 1.0000000000000000
1501 1117 1.0000000000000000
1501 1118 1.0000000000000000
1501 1119 1.0000000000000000
1501 1120 1.0000000000000000
1501 1121 1.0000000000000000
1501 1122 1.0000000000000000
1501 1123 1.0000000000000000
1501 1124 1.0000000000000000
1501 1125 1.0000000000000000
1501 1126 1.0000000000000000
1501 1127 1.0000000000000000
1501 1128 1.0000000000000000
1501 1129 1.0000000000000000
1501 1130 1.0000000000000000
1501 1131 1.0000000000000000
1501 1132 1.0000000000000000
1501 1133 1.0000000000000000
1501 1134 1.0000000000000000
1501 1135 1.0000000000000000
1501 1136 1.0000000000000000
1501 1137 1.0000000000000000
1501 1138 1.0000000000000000
1501 1139 1.0000000000000000
1501 1140 1.0000000000000000
1501 1141 1.0000000000000000
1501 1142 1.0000000000000000
1501 1143 1.0000000000000000
1501 1144 1.0000000000000000
1501 1145 1.0000000000000000
1501 1146 1.0000000000000000
1501 1147 1.0000000000000000
1501 1148 1.0000000000000000
1501 1149 1.0000000000000000
1501 1150 1.0000000000000000
1501 1151 1.0000000000000000
1501 1152 1.0000000000000000
1501 1153 1.0000000000000000
1501 1154 1.0000000000000000
1501 1155 1.0000000000000000
1501 1156 1.0000000000000000
1501 1157 1.0000000000000000
1501 1158 1.0000000000000000
1501 1159 1.0000000000000000
1501 1160 1.0000000000000000
1501 1161 1.0000000000000000
1501 1162 1.0000000000000000
1501 1163 1.0000000000000000
1501 1164 1.0000000000000000
1501 1165 1.0000000000000000
1501 1166 1.0000000000000000
1501 1167 1.0000000000000000
1501 1168 1.0000000000000000
1501 1169 1.0000000000000000
1501 1170 1.0000000000000000
1501 1171 1.0000000000000000
1501 1172 1.0000000000000000
1501 1173 1.0000000000000000
1501 1174 1.0000000000000000
1501 1175 1.0000000000000000
1501 1176 1.0000000000000000
1501 1177 1.0000000000000000
1501 1178 1.0000000000000000
1501 1179 1.0000000000000000
1501 1180 1.0000000000000000
1501 1181 1.0000000000000000
1501 1182 1.0000000000000000
1501 1183 1.0000000000000000
1501 1184 1.0000000000000000
1501 1185 1.0000000000000000
1501 1186 1.0000000000000000
1501 1187 1.0000000000000000
1501 1188 1.0000000000000000
1501 1189 1.0000000000000000
1501 1190 1.0000000000000000
1501 1191 1.0000000000000000
1501 1192 1.0000000000000000
1501 1193 1.0000000000000000
1501 1194 1.0000000000000000
1501 1195 1.0000000000000000
1501 1196 1.0000000000000000
1501 1197 1.0000000000000000
1501 1198 1.0000000000000000
1501 1199 1.0000000000000000
1501 1200 1.0000000000000000
1501 1201 1.0000000000000000
1501 1202 1.0000000000000000
1501 1203 1.0000000000000000
1501 1204 1.0000000000000000
1501 1205 1.0000000000000000
1501 1206 1.0000000000000000
1501 1207 1.0000000000000000
1501 1208 1.0000000000000000
1501 1209 1.0000000000000000
1501 1210 1.0000000000000000
1501 1211 1.0000000000000000
1501 1212 1.0000000000000000
1501 1213 1.0000000000000000
1501 1214 1.0000000000000000
1501 1215 1.0000000000000000
1501 1216 1.0000000000000000
1501 1217 1.0000000000000000
1501 1218 1.0000000000000000
1501 1219 1.0000000000000000
1501 1220 1.0000000000000000
1501 1221 1.0000000000000000
1501 1222 1.0000000000000000
1501 1223 1.0000000000000000
1501 1224 1.0000000000000000
1501 1225 1.0000000000000000
1501 1226 1.0000000000000000
1501 1227 1.0000000000000000
1501 1228 1.0000000000000000
1501 1229 1.0000000000000000
1501 1230 1.0000000000000000
1501 1231 1.0000000000000000
1501 1232 1.0000000000000000
1501 1233 1.0000000000000000
1501 1234 1.0000000000000000
1501 1235 1.0000000000000000
1501 1236 1.0000000000000000
1501 1237 1.0000000000000000
1501 1238 1.0000000000000000
1501 1239 1.0000000000000000
1501 1240 1.0000000000000000
1501 1241 1.0000000000000000
1501 1242 1.0000000000000000
1501 1243 1.0000000000000000
1501 1244 1.0000000000000000
1501 1245 1.0000000000000000
1501 1246 1.0000000000000000
1501 1247 1.0000000000000000
1501 1248 1.0000000000000000
1501 1249 1.0000000000000000
1501 1250 1.0000000000000000
1501 1251 1.0000000000000000
1501 1252 1.0000000000000000
1501 1253 1.0000000000000000
1501 1254 1.0000000000000000
1501 1255 1.0000000000000000
1501 1256 1.0000000000000000
1501 1257 1.0000000000000000
1501 1258 1.0000000000000000
1501 1259 1.0000000000000000
1501 1260 1.0000000000000000
1501 1261 1.0000000000000000
1501 1262 1.0000000000000000
1501 1263 1.0000000000000000
1501 1264 1.0000000000000000
1501 1265 1.0000000000000000
1501 1266 1.0000000000000000
1501 1267 1.0000000000000000
1501 1268 1.0000000000000000
1501 1269 1.0000000000000000
1501 1270 1.0000000000000000
1501 1271 1.0000000000000000
1501 1272 1.0000000000000000
1501 1273 1.0000000000000000
1501 1274 1.0000000000000000
1501 1275 1.0000000000000000
1501 1276 1.0000000000000000
1501 1277 1.0000000000000000
1501 1278 1.0000000000000000
1501 1279 1.0000000000000000
1501 1280 1.0000000000000000
1501 1281 1.0000000000000000
1501 1282 1.0000000000000000
1501 1283 1.0000000000000000
1501 1284 1.0000000000000000
1501 1285 1.0000000000000000
1501 1286 1.0000000000000000
1501 1287 1.0000000000000000
1501 1288 1.0000000000000000
1501 1289 1.0000000000000000
1501 1290 1.0000000000000000
1501 1291 1.0000000000000000
1501 1292 1.0000000000000000
1501 1293 1.0000000000000000
1501 1294 1.0000000000000000
1501 1295 1.0000000000000000
1501 1296 1.0000000000000000
1501 1297 1.0000000000000000
1501 1298 1.0000000000000000
1501 1299 1.0000000000000000
1501 1300 1.0000000000000000
1501 1301 1.0000000000000000
1501 1302 1.0000000000000000
1501 1303 1.0000000000000000
1501 1304 1.0000000000000000
1501 1305 1.0000000000000000
1501 1306 1.0000000000000000
1501 1307 1.0000000000000000
1501 1308 1.0000000000000000
1501 1309 1.0000000000000000
1501 1310 1.0000000000000000
1501 1311 1.0000000000000000
1501 1312 1.0000000000000000
1501 1313 1.0000000000000000
1501 1314 1.0000000000000000
1501 1315 1.0000000000000000
1501 1316 1.0000000000000000
1501 1317 1.0000000000000000
1501 1318 1.0000000000000000
1501 1319 1.0000000000000000
1501 1320 1.0000000000000000
1501 1321 1.0000000000000000
1501 1322 1.0000000000000000
1501 1323 1.0000000000000000
1501 1324 1.0000000000000000
1501 1325 1.0000000000000000
1501 1326 1.0000000000000000
1501 1327 1.0000000000000000
1501 1328 1.0000000000000000
1501 1329 1.0000000000000000
1501 1330 1.0000000000000000
1501 1331 1.0000000000000000
1501 1332 1.0000000000000000
1501 1333 1.0000000000000000
1501 1334 1.0000000000000000
1501 1335 1.0000000000000000
1501 1336 1.0000000000000000
1501 1337 1.0000000000000000
1501 1338 1.0000000000000000
1501 1339 1.0000000000000000
1501 1340 1.0000000000000000
1501 1341 1.0000000000000000
1501 1342 1.0000000000000000
1501 1343 1.0000000000000000
1501 1344 1.0000000000000000
1501 1345 1.0000000000000000
1501 1346 1.0000000000000000
1501 1347 1.0000000000000000
1501 1348 1.0000000000000000
1501 1349 1.0000000000000000
1501 1350 1.0000000000000000
1501 1351 1.0000000000000000
1501 1352 1.0000000000000000
1501 1353 1.0000000000000000
1501 1354 1.0000000000000000
1501 1355 1.0000000000000000
1501 1356 1.0000000000000000
1501 1357 1.0000000000000000
1501 1358 1.0000000000000000
1501 1359 1.0000000000000000
1501 1360 1.0000000000000000
1501 1361 1.0000000000000000
1501 1362 1.0000000000000000
1501 1363 1.0000000000000000
1501 1364 1.0000000000000000
1501 1365 1.0000000000000000
1501 1366 1.0000000000000000
1501 1367 1.0000000000000000
1501 1368 1.0000000000000000
1501 1369 1.0000000000000000
1501 1370 1.0000000000000000
1501 1371 1.0000000000000000
1501 1372 1.0000000000000000
1501 1373 1.0000000000000000
1501 1374 1.0000000000000000
1501 1375 1.0000000000000000
1501 1376 1.0000000000000000
1501 1377 1.0000000000000000
1501 1378 1.0000000000000000
1501 1379 1.0000000000000000
1501 1380 1.0000000000000000
1501 1381 1.0000000000000000
1501 1382 1.0000000000000000
1501 1383 1.0000000000000000
1501 1384 1.0000000000000000
1501 1385 1.0000000000000000
1501 1386 1.0000000000000000
1501 1387 1.0000000000000000
1501 1388 1.0000000000000000
1501 1389 1.0000000000000000
1501 1390 1.0000000000000000
1501 1391 1.0000000000000000
1501 1392 1.0000000000000000
1501 1393 1.0000000000000000
1501 1394 1.0000000000000000
1501 1395 1.0000000000000000
1501 1396 1.0000000000000000
1501 1397 1.0000000000000000
1501 1398 1.0000000000000000
1501 1399 1.0000000000000000
1501 1400 1.0000000000000000
1501 1401 1.0000000000000000
1501 1402 1.0000000000000000
1501 1403 1.0000000000000000
1501 1404 1.0000000000000000
1501 1405 1.0000000000000000
1501 1406 1.0000000000000000
1501 1407 1.0000000000000000
1501 1408 1.0000000000000000
1501 1409 1.0000000000000000
1501 1410 1.0000000000000000
1501 1411 1.0000000000000000
1501 1412 1.0000000000000000
1501 1413 1.0000000000000000
1501 1414 1.0000000000000000
1501 1415 1.0000000000000000
1501 1416 1.0000000000000000
1501 1417 1.0000000000000000
1501 1418 1.0000000000000000
1501 1419 1.0000000000000000
1501 1420 1.0000000000000000
1501 1421 1.0000000000000000
1501 1422 1.0000000000000000
1501 1423 1.0000000000000000
1501 1424 1.0000000000000000
1501 1425 1.0000000000000000
1501 1426 1.0000000000000000
1501 1427 1.0000000000000000
1501 1428 1.0000000000000000
1501 1429 1.0000000000000000
1501 1430 1.0000000000000000
1501 1431 1.0000000000000000
1501 1432 1.0000000000000000
1501 1433 1.0000000000000000
1501 1434 1.0000000000000000
1501 1435 1.0000000000000000
1501 1436 1.0000000000000000
1501 1437 1.0000000000000000
1501 1438 1.0000000000000000
1501 1439 1.0000000000000000
1501 1440 1.0000000000000000
1501 1441 1.0000000000000000
1501 1442 1.0000000000000000
1501 1443 1.0000000000000000
1501 1444 1.0000000000000000
1501 1445 1.0000000000000000
1501 1446 1.0000000000000000
1501 1447 1.0000000000000000
1501 1448 1.0000000000000000
1501 1449 1.0000000000000000
1501 1450 1.0000000000000000
1501 1451 1.0000000000000000
1501 1452 1.0000000000000000
1501 1453 1.0000000000000000
1501 1454 1.0000000000000000
1501 1455 1.0000000000000000
1501 1456 1.0000000000000000
1501 1457 1.0000000000000000
1501 1458 1.0000000000000000
1501 1459 1.0000000000000000
1501 1460 1.0000000000000000
1501 1461 1.0000000000000000
1501 1462 1.0000000000000000
1501 1463 1.0000000000000000
1501 1464 1.0000000000000000
1501 1465 1.0000000000000000
1501 1466 1.0000000000000000
1501 1467 1.0000000000000000
1501 1468 1.0000000000000000
1501 1469 1.0000000000000000
1501 1470 1.0000000000000000
1501 1471 1.0000000000000000
1501 1472 1.0000000000000000
1501 1473 1.0000000000000000
1501 1474 1.0000000000000000
1501 1475 1.0000000000000000
1501 1476 1.0000000000000000
1501 1477 1.0000000000000000
1501 1478 1.0000000000000000
1501 1479 1.0000000000000000
1501 1480 1.0000000000000000
1501 1481 1.0000000000000000
1501 1482 1.0000000000000000
1501 1483 1.0000000000000000
1501 1484 1.0000000000000000
1501 1485 1.0000000000000000
1501 1486 1.0000000000000000
1501 1487 1.0000000000000000
1501 1488 1.0000000000000000
1501 1489 1.0000000000000000
1501 1490 1.0000000000000000
1501 1491 1.0000000000000000
1501 1492 1.0000000000000000
1501 1493 1.0000000000000000
1501 1494 1.0000000000000000
1501 1495 1.0000000000000000
1501 1496 1.0000000000000000
1501 1497 1.0000000000000000
1501 1498 1.0000000000000000
1501 1499 1.0000000000000000
1501 1500 1.0000000000000000
1501 3001 1.0000000000000000
