302 1
456
457
458
459
460
461
462
463
464
465
466
467
468
469
470
471
472
473
474
475
476
477
478
479
480
481
482
483
484
485
486
487
488
489
490
491
492
493
494
495
496
497
498
499
500
501
502
503
504
505
506
507
508
509
510
511
512
513
514
515
576
619
662
755
736
749
741
790
697
719
760
751
523
730
380
598
754
771
557
547
700
611
670
551
675
687
729
631
728
703
745
644
794
665
535
768
580
696
704
638
733
705
750
589
744
634
398
699
606
528
764
742
612
594
717
762
529
600
707
610
571
757
781
708
596
554
542
777
654
690
640
582
646
620
672
780
800
664
555
731
532
591
680
544
574
676
720
536
567
725
692
758
778
524
679
613
668
564
660
543
391
669
628
738
642
710
522
706
737
735
651
686
624
694
695
726
630
769
688
657
561
740
534
786
739
683
661
773
674
516
572
585
722
584
552
681
666
599
698
701
743
626
622
763
709
575
577
614
659
570
581
779
553
566
648
639
718
761
604
691
636
652
753
716
399
792
747
767
685
714
723
721
621
788
774
519
775
517
603
711
546
785
627
565
616
587
727
533
590
609
588
618
595
597
545
538
629
678
756
748
635
752
746
732
569
632
784
518
593
579
677
641
658
655
602
583
782
663
605
563
793
713
684
386
649
520
656
791
734
541
601
673
573
615
671
526
653
592
548
650
643
608
